MD-kMC export data                      
   1.00000000000000     
     4.2693400659896703    0.0000000000000000    0.0000000000000000
     0.0000000000000000    2.4797597491190202    0.0000000000000000
     0.0000000000000000    0.0000000000000000   19.9149091414256993
   C 
     4
Direct
  0.0001316030186795 -0.0000000000000000  0.0000000000000000
  0.1665350636479848  0.5000000000000000 -0.0000000000000000
  0.5001316030186866  0.5000000000000000  0.0000000000000000
  0.6665350636479848  0.0000000000000000 -0.0000000000000000
 
  0.00000000E+00  0.00000000E+00  0.00000000E+00
  0.00000000E+00  0.00000000E+00  0.00000000E+00
  0.00000000E+00  0.00000000E+00  0.00000000E+00
  0.00000000E+00  0.00000000E+00  0.00000000E+00
