MD-kMC export data                      
   1.00000000000000     
     4.2587315024972900    0.0000000000000000    0.0000000000000000
     0.0000000000000000    2.5161542329991202    0.0000000000000000
     0.0000000000000000    0.0000000000000000   19.6757441172607983
   C 
     4
Direct
  0.0005129862241242 -0.0000000000000000 -0.0000000000000000
  0.1661536804425402  0.5000000000000000  0.0000000000000000
  0.5005129862241242  0.5000000000000000 -0.0000000000000000
  0.6661536804425401 -0.0000000000000000  0.0000000000000000
 
  0.00000000E+00  0.00000000E+00  0.00000000E+00
  0.00000000E+00  0.00000000E+00  0.00000000E+00
  0.00000000E+00  0.00000000E+00  0.00000000E+00
  0.00000000E+00  0.00000000E+00  0.00000000E+00
