MD-kMC export data                      
   1.00000000000000     
     4.3796695950991200    0.0000000000000000    0.0000000000000000
     0.0000000000000000    2.4572188563706598    0.0000000000000000
     0.0000000000000000    0.0000000000000000   19.5913109213399004
   C 
     4
Direct
  0.9994619158319472  0.0000000000000000 -0.0000000000000000
  0.1672047508347172  0.5000000000000000  0.0000000000000000
  0.4994619158319470  0.5000000000000000 -0.0000000000000000
  0.6672047508347171 -0.0000000000000000  0.0000000000000000
 
  0.00000000E+00  0.00000000E+00  0.00000000E+00
  0.00000000E+00  0.00000000E+00  0.00000000E+00
  0.00000000E+00  0.00000000E+00  0.00000000E+00
  0.00000000E+00  0.00000000E+00  0.00000000E+00
