MD-kMC export data                      
   1.00000000000000     
     4.2551453642598300    0.0000000000000000    0.0000000000000000
     0.0000000000000000    2.5291082018378002    0.0000000000000000
     0.0000000000000000    0.0000000000000000   19.5914632448609005
   C 
     4
Direct
  0.0006372893384494  0.0000000000000000  0.0000000000000000
  0.1660293773282149  0.5000000000000000  0.0000000000000000
  0.5006372893384494  0.5000000000000000  0.0000000000000000
  0.6660293773282149  0.0000000000000000  0.0000000000000000
 
  0.00000000E+00  0.00000000E+00  0.00000000E+00
  0.00000000E+00  0.00000000E+00  0.00000000E+00
  0.00000000E+00  0.00000000E+00  0.00000000E+00
  0.00000000E+00  0.00000000E+00  0.00000000E+00
