MD-kMC export data                      
   1.00000000000000     
     4.2620161085283401    0.0000000000000000    0.0000000000000000
     0.0000000000000000    2.5044339754784102    0.0000000000000000
     0.0000000000000000    0.0000000000000000   19.7525882637186001
   C 
     4
Direct
  0.0003938605976299  0.0000000000000000  0.0000000000000000
  0.1662728060690343  0.5000000000000000 -0.0000000000000000
  0.5003938605976300  0.5000000000000000  0.0000000000000000
  0.6662728060690343 -0.0000000000000000 -0.0000000000000000
 
  0.00000000E+00  0.00000000E+00  0.00000000E+00
  0.00000000E+00  0.00000000E+00  0.00000000E+00
  0.00000000E+00  0.00000000E+00  0.00000000E+00
  0.00000000E+00  0.00000000E+00  0.00000000E+00
