MD-kMC export data                      
   1.00000000000000     
     4.2586179523287599    0.0000000000000000    0.0000000000000000
     0.0000000000000000    2.5165243463945099    0.0000000000000000
     0.0000000000000000    0.0000000000000000   19.6733748911706989
   C 
     4
Direct
  0.0005167236399103  0.0000000000000000  0.0000000000000000
  0.1661499430267540  0.5000000000000000 -0.0000000000000000
  0.5005167236399104  0.5000000000000000  0.0000000000000000
  0.6661499430267539  0.0000000000000000 -0.0000000000000000
 
  0.00000000E+00  0.00000000E+00  0.00000000E+00
  0.00000000E+00  0.00000000E+00  0.00000000E+00
  0.00000000E+00  0.00000000E+00  0.00000000E+00
  0.00000000E+00  0.00000000E+00  0.00000000E+00
