MD-kMC export data                      
   1.00000000000000     
     4.2657143918529501    0.0000000000000000    0.0000000000000000
     0.0000000000000000    2.4917267489033201    0.0000000000000000
     0.0000000000000000    0.0000000000000000   19.8361094609985997
   C 
     4
Direct
  0.0002589458464980 -0.0000000000000000 -0.0000000000000000
  0.1664077208201663  0.5000000000000000  0.0000000000000000
  0.5002589458464980  0.5000000000000000 -0.0000000000000000
  0.6664077208201663 -0.0000000000000000  0.0000000000000000
 
  0.00000000E+00  0.00000000E+00  0.00000000E+00
  0.00000000E+00  0.00000000E+00  0.00000000E+00
  0.00000000E+00  0.00000000E+00  0.00000000E+00
  0.00000000E+00  0.00000000E+00  0.00000000E+00
