MD-kMC export data                      
   1.00000000000000     
     4.2618994468667504    0.0000000000000000    0.0000000000000000
     0.0000000000000000    2.5048040888737999    0.0000000000000000
     0.0000000000000000    0.0000000000000000   19.7502102042294005
   C 
     4
Direct
  0.0003977899670511  0.0000000000000000 -0.0000000000000000
  0.1662688766996132  0.5000000000000000  0.0000000000000000
  0.5003977899670511  0.5000000000000000 -0.0000000000000000
  0.6662688766996132  0.0000000000000000  0.0000000000000000
 
  0.00000000E+00  0.00000000E+00  0.00000000E+00
  0.00000000E+00  0.00000000E+00  0.00000000E+00
  0.00000000E+00  0.00000000E+00  0.00000000E+00
  0.00000000E+00  0.00000000E+00  0.00000000E+00
