MD-kMC export data                      
   1.00000000000000     
     4.2549970689764098    0.0000000000000000    0.0000000000000000
     0.0000000000000000    2.5296016863649902    0.0000000000000000
     0.0000000000000000    0.0000000000000000   19.5883239351287983
   C 
     4
Direct
  0.0006419541786250  0.0000000000000000  0.0000000000000000
  0.1660247124880393  0.5000000000000000 -0.0000000000000000
  0.5006419541786251  0.5000000000000000  0.0000000000000000
  0.6660247124880392 -0.0000000000000000 -0.0000000000000000
 
  0.00000000E+00  0.00000000E+00  0.00000000E+00
  0.00000000E+00  0.00000000E+00  0.00000000E+00
  0.00000000E+00  0.00000000E+00  0.00000000E+00
  0.00000000E+00  0.00000000E+00  0.00000000E+00
