MD-kMC export data                      
   1.00000000000000     
     4.2656334996414298    0.0000000000000000    0.0000000000000000
     0.0000000000000000    2.4919734911669198    0.0000000000000000
     0.0000000000000000    0.0000000000000000   19.8345215213982016
   C 
     4
Direct
  0.0002616400966354 -0.0000000000000000  0.0000000000000000
  0.1664050265700289  0.5000000000000000 -0.0000000000000000
  0.5002616400966354  0.5000000000000000  0.0000000000000000
  0.6664050265700289  0.0000000000000000 -0.0000000000000000
 
  0.00000000E+00  0.00000000E+00  0.00000000E+00
  0.00000000E+00  0.00000000E+00  0.00000000E+00
  0.00000000E+00  0.00000000E+00  0.00000000E+00
  0.00000000E+00  0.00000000E+00  0.00000000E+00
