MD-kMC export data                      
   1.00000000000000     
     4.2956917384015298    0.0000000000000000    0.0000000000000000
     0.0000000000000000    2.4648404004270001    0.0000000000000000
     0.0000000000000000    0.0000000000000000   19.9125451007254988
   C 
     4
Direct
  0.9998701389881535  0.0000000000000000  0.0000000000000000
  0.1667965276785109  0.5000000000000000 -0.0000000000000000
  0.4998701389881534  0.5000000000000000  0.0000000000000000
  0.6667965276785108 -0.0000000000000000 -0.0000000000000000
 
  0.00000000E+00  0.00000000E+00  0.00000000E+00
  0.00000000E+00  0.00000000E+00  0.00000000E+00
  0.00000000E+00  0.00000000E+00  0.00000000E+00
  0.00000000E+00  0.00000000E+00  0.00000000E+00
