MD-kMC export data                      
   1.00000000000000     
     4.2738993851217497    0.0000000000000000    0.0000000000000000
     0.0000000000000000    2.4668057802803300    0.0000000000000000
     0.0000000000000000    0.0000000000000000   19.9981321282999005
   C 
     4
Direct
 -0.0000057053860106  0.0000000000000000 -0.0000000000000000
  0.1666723720526748  0.5000000000000000  0.0000000000000000
  0.4999942946139965  0.5000000000000000 -0.0000000000000000
  0.6666723720526748 -0.0000000000000000  0.0000000000000000
 
  0.00000000E+00  0.00000000E+00  0.00000000E+00
  0.00000000E+00  0.00000000E+00  0.00000000E+00
  0.00000000E+00  0.00000000E+00  0.00000000E+00
  0.00000000E+00  0.00000000E+00  0.00000000E+00
