MD-kMC export data                      
   1.00000000000000     
     4.4021064270412298    0.0000000000000000    0.0000000000000000
     0.0000000000000000    2.4553804734548801    0.0000000000000000
     0.0000000000000000    0.0000000000000000   19.5060507129472001
   C 
     4
Direct
  0.9993891339004485  0.0000000000000000  0.0000000000000000
  0.1672775327662157  0.5000000000000000 -0.0000000000000000
  0.4993891339004486  0.5000000000000000  0.0000000000000000
  0.6672775327662158  0.0000000000000000 -0.0000000000000000
 
  0.00000000E+00  0.00000000E+00  0.00000000E+00
  0.00000000E+00  0.00000000E+00  0.00000000E+00
  0.00000000E+00  0.00000000E+00  0.00000000E+00
  0.00000000E+00  0.00000000E+00  0.00000000E+00
