MD-kMC export data                      
   1.00000000000000     
     4.2737256967738597    0.0000000000000000    0.0000000000000000
     0.0000000000000000    2.4672992648075200    0.0000000000000000
     0.0000000000000000    0.0000000000000000   19.9949448827674985
   C 
     4
Direct
 -0.0000004511226541 -0.0000000000000000  0.0000000000000000
  0.1666671177893185  0.5000000000000000 -0.0000000000000000
  0.4999995488773530  0.5000000000000000  0.0000000000000000
  0.6666671177893184 -0.0000000000000000 -0.0000000000000000
 
  0.00000000E+00  0.00000000E+00  0.00000000E+00
  0.00000000E+00  0.00000000E+00  0.00000000E+00
  0.00000000E+00  0.00000000E+00  0.00000000E+00
  0.00000000E+00  0.00000000E+00  0.00000000E+00
