MD-kMC export data                      
   1.00000000000000     
     4.2730412223456904    0.0000000000000000    0.0000000000000000
     0.0000000000000000    2.4674978466824000    0.0000000000000000
     0.0000000000000000    0.0000000000000000   19.9965383286017016
   C 
     4
Direct
  1.0000048148618355 -0.0000000000000000 -0.0000000000000000
  0.1666618518048291  0.5000000000000000  0.0000000000000000
  0.5000048148618352  0.5000000000000000 -0.0000000000000000
  0.6666618518048291  0.0000000000000000  0.0000000000000000
 
  0.00000000E+00  0.00000000E+00  0.00000000E+00
  0.00000000E+00  0.00000000E+00  0.00000000E+00
  0.00000000E+00  0.00000000E+00  0.00000000E+00
  0.00000000E+00  0.00000000E+00  0.00000000E+00
