MD-kMC export data                      
   1.00000000000000     
      4.2730412223456900   0.0000000000000000    0.0000000000000000
     0.0000000000000000   2.4674978466824000     0.0000000000000000
     0.0000000000000000    0.0000000000000000  19.9965383286017000 
   C 
     4
Direct
  0.9998739117154738  0.0000000000000000 -0.0000000000000000
  0.1667927549511905  0.5000000000000000  0.0000000000000000
  0.4998739117154738  0.5000000000000000 -0.0000000000000000
  0.6667927549511905 -0.0000000000000000  0.0000000000000000
 
  0.00000000E+00  0.00000000E+00  0.00000000E+00
  0.00000000E+00  0.00000000E+00  0.00000000E+00
  0.00000000E+00  0.00000000E+00  0.00000000E+00
  0.00000000E+00  0.00000000E+00  0.00000000E+00
