MD-kMC export data                      
   1.00000000000000     
     4.2732549064594201    0.0000000000000000    0.0000000000000000
     0.0000000000000000    2.4674727764347000    0.0000000000000000
     0.0000000000000000    0.0000000000000000   19.9957415622321015
   C 
     4
Direct
  1.0000034922381569  0.0000000000000000 -0.0000000000000000
  0.1666631744285074  0.5000000000000000  0.0000000000000000
  0.5000034922381569  0.5000000000000000 -0.0000000000000000
  0.6666631744285074  0.0000000000000000  0.0000000000000000
 
  0.00000000E+00  0.00000000E+00  0.00000000E+00
  0.00000000E+00  0.00000000E+00  0.00000000E+00
  0.00000000E+00  0.00000000E+00  0.00000000E+00
  0.00000000E+00  0.00000000E+00  0.00000000E+00
