MD-kMC export data                      
   1.00000000000000     
     4.2553307333640999    0.0000000000000000    0.0000000000000000
     0.0000000000000000    2.5284913461788201    0.0000000000000000
     0.0000000000000000    0.0000000000000000   19.5953891721786988
   C 
     4
Direct
  0.0006314431116171  0.0000000000000000  0.0000000000000000
  0.1660352235550472  0.5000000000000000 -0.0000000000000000
  0.5006314431116170  0.5000000000000000  0.0000000000000000
  0.6660352235550473  0.0000000000000000 -0.0000000000000000
 
  0.00000000E+00  0.00000000E+00  0.00000000E+00
  0.00000000E+00  0.00000000E+00  0.00000000E+00
  0.00000000E+00  0.00000000E+00  0.00000000E+00
  0.00000000E+00  0.00000000E+00  0.00000000E+00
