MD-kMC export data                      
   1.00000000000000     
     4.2728275382319501    0.0000000000000000    0.0000000000000000
     0.0000000000000000    2.4675229169300898    0.0000000000000000
     0.0000000000000000    0.0000000000000000   19.9973351787925999
   C 
     4
Direct
  1.0000061272077063 -0.0000000000000000  0.0000000000000000
  0.1666605394589578  0.5000000000000000 -0.0000000000000000
  0.5000061272077065  0.5000000000000000  0.0000000000000000
  0.6666605394589578  0.0000000000000000 -0.0000000000000000
 
  0.00000000E+00  0.00000000E+00  0.00000000E+00
  0.00000000E+00  0.00000000E+00  0.00000000E+00
  0.00000000E+00  0.00000000E+00  0.00000000E+00
  0.00000000E+00  0.00000000E+00  0.00000000E+00
