MD-kMC export data                      
   1.00000000000000     
     4.2691663776417803    0.0000000000000000    0.0000000000000000
     0.0000000000000000    2.4802532336462000    0.0000000000000000
     0.0000000000000000    0.0000000000000000   19.9117568283012005
   C 
     4
Direct
  0.0001369067037515 -0.0000000000000000 -0.0000000000000000
  0.1665297599629129  0.5000000000000000  0.0000000000000000
  0.5001369067037585  0.5000000000000000 -0.0000000000000000
  0.6665297599629129 -0.0000000000000000  0.0000000000000000
 
  0.00000000E+00  0.00000000E+00  0.00000000E+00
  0.00000000E+00  0.00000000E+00  0.00000000E+00
  0.00000000E+00  0.00000000E+00  0.00000000E+00
  0.00000000E+00  0.00000000E+00  0.00000000E+00
