MD-kMC export data                      
   1.00000000000000     
     4.3595832884080998    0.0000000000000000    0.0000000000000000
     0.0000000000000000    2.4589015239082501    0.0000000000000000
     0.0000000000000000    0.0000000000000000   19.6681073271603992
   C 
     4
Direct
  0.9995410743224196  0.0000000000000000  0.0000000000000000
  0.1671255923442447  0.5000000000000000 -0.0000000000000000
  0.4995410743224197  0.5000000000000000  0.0000000000000000
  0.6671255923442447  0.0000000000000000 -0.0000000000000000
 
  0.00000000E+00  0.00000000E+00  0.00000000E+00
  0.00000000E+00  0.00000000E+00  0.00000000E+00
  0.00000000E+00  0.00000000E+00  0.00000000E+00
  0.00000000E+00  0.00000000E+00  0.00000000E+00
