# Title: Silicon Dioxide LAMMPS input script
# By: Natan Szczepaniak

# First input script which uses SIMPLE-NN generated potential
# to simulate Silicon Dioxide.


# 1) Setting up the simulation box

units		metal		# units
atom_style	atomic		# atoms are spheres
dimension	3		# 3 dimensions
boundary	p p p		# p - periodic boundaries 

<<<<<<< HEAD
lattice sc 0.6
region box block 0 10 0 10 0 10
create_box 2 box
=======
lattice sc 0.6			# sc - simple cubic
				# 0.6 - density 

region box block 0 10 0 10 0 10 # create a box of shape "block" (10x10)
create_box 2 box		# create box of atoms of 2 types
>>>>>>> 670c0bd8d207ce073ed4327216c1bfd1ea19ff17

# Create Si atoms
create_atoms 1 region box

# Create O atoms
lattice sc 0.6 origin 0.3 0.3 0.3
create_atoms 2 region box

# 2) Define interparticle ineractions (SIMPLE NN potential)

pair_style nn			# SIMPLE-NN potential file (.cpp)
pair_coeff * * /home/lammps_input/potential Si O # "* *" means every type interacts with every type with following coeffs

mass * 1.0			# Every atom has mass 1.0 (CHANGE)

# 3) List of Neighbours (Neighbor lists are recalculated 
# each timestep.)
<<<<<<< HEAD
neighbor	2.0 bin
neigh_modify	delay 10 every 1
=======

neighbour 2.0 bin		# Neighbour list 2.0 Angstrom
neigh_modify delay 10 every 1	# Update Neighbour list
>>>>>>> 670c0bd8d207ce073ed4327216c1bfd1ea19ff17

# 4) Define Simulation parameters (Temperature, Momentum, etc.)

fix 3 all nvt temp 300.0 300.0 0.01

# 5) Final setup
#   - Define starting particle velocity
#   - Define timestep
#   - Define output system properties (temp, energy, etc.)
#   - Define simulation length

velocity        all create 300 199085 mom no rot no

