MD-kMC export data                      
   1.00000000000000     
     4.2519733845015599    0.0000000000000000    0.0000000000000000
     0.0000000000000000    2.5409518304903100    0.0000000000000000
     0.0000000000000000    0.0000000000000000   19.5146926338215003
   C 
     4
Direct
  0.0007433376684251 -0.0000000000000000 -0.0000000000000000
  0.1659233289982392  0.5000000000000000  0.0000000000000000
  0.5007433376684250  0.5000000000000000 -0.0000000000000000
  0.6659233289982393 -0.0000000000000000  0.0000000000000000
 
  0.00000000E+00  0.00000000E+00  0.00000000E+00
  0.00000000E+00  0.00000000E+00  0.00000000E+00
  0.00000000E+00  0.00000000E+00  0.00000000E+00
  0.00000000E+00  0.00000000E+00  0.00000000E+00
