MD-kMC export data                      
   1.00000000000000     
     4.2516819900024299    0.0000000000000000    0.0000000000000000
     0.0000000000000000    2.5419387995446900    0.0000000000000000
     0.0000000000000000    0.0000000000000000   19.5084525289637014
   C 
     4
Direct
  0.0007520733252677 -0.0000000000000000  0.0000000000000000
  0.1659145933413967  0.5000000000000000 -0.0000000000000000
  0.5007520733252675  0.5000000000000000  0.0000000000000000
  0.6659145933413968 -0.0000000000000000 -0.0000000000000000
 
  0.00000000E+00  0.00000000E+00  0.00000000E+00
  0.00000000E+00  0.00000000E+00  0.00000000E+00
  0.00000000E+00  0.00000000E+00  0.00000000E+00
  0.00000000E+00  0.00000000E+00  0.00000000E+00
