MD-kMC export data                      
   1.00000000000000     
     4.2586558023849399    0.0000000000000000    0.0000000000000000
     0.0000000000000000    2.5164009752627101    0.0000000000000000
     0.0000000000000000    0.0000000000000000   19.6741645526555011
   C 
     4
Direct
  0.0005154767818092  0.0000000000000000 -0.0000000000000000
  0.1661511898848551  0.5000000000000000  0.0000000000000000
  0.5005154767818091  0.5000000000000000 -0.0000000000000000
  0.6661511898848552 -0.0000000000000000  0.0000000000000000
 
  0.00000000E+00  0.00000000E+00  0.00000000E+00
  0.00000000E+00  0.00000000E+00  0.00000000E+00
  0.00000000E+00  0.00000000E+00  0.00000000E+00
  0.00000000E+00  0.00000000E+00  0.00000000E+00
