MD-kMC export data                      
   1.00000000000000     
     4.2743233270280898    0.0000000000000000    0.0000000000000000
     0.0000000000000000    2.4673474251962402    0.0000000000000000
     0.0000000000000000    0.0000000000000000   19.9917589872671009
   C 
     4
Direct
  0.9999969348728004 -0.0000000000000000  0.0000000000000000
  0.1666697317938639  0.5000000000000000 -0.0000000000000000
  0.4999969348728004  0.5000000000000000  0.0000000000000000
  0.6666697317938639 -0.0000000000000000 -0.0000000000000000
 
  0.00000000E+00  0.00000000E+00  0.00000000E+00
  0.00000000E+00  0.00000000E+00  0.00000000E+00
  0.00000000E+00  0.00000000E+00  0.00000000E+00
  0.00000000E+00  0.00000000E+00  0.00000000E+00
