MD-kMC export data                      
   1.00000000000000     
     4.2736388525999196    0.0000000000000000    0.0000000000000000
     0.0000000000000000    2.4675460070711202    0.0000000000000000
     0.0000000000000000    0.0000000000000000   19.9933517628302013
   C 
     4
Direct
  0.0000021787778791 -0.0000000000000000 -0.0000000000000000
  0.1666644878887851  0.5000000000000000  0.0000000000000000
  0.5000021787778860  0.5000000000000000 -0.0000000000000000
  0.6666644878887854  0.0000000000000000  0.0000000000000000
 
  0.00000000E+00  0.00000000E+00  0.00000000E+00
  0.00000000E+00  0.00000000E+00  0.00000000E+00
  0.00000000E+00  0.00000000E+00  0.00000000E+00
  0.00000000E+00  0.00000000E+00  0.00000000E+00
