MD-kMC export data                      
   1.00000000000000     
     4.2518276872519900    0.0000000000000000    0.0000000000000000
     0.0000000000000000    2.5414453150175000    0.0000000000000000
     0.0000000000000000    0.0000000000000000   19.5115719526462001
   C 
     4
Direct
  0.0007477097341921 -0.0000000000000000  0.0000000000000000
  0.1659189569324722  0.5000000000000000 -0.0000000000000000
  0.5007477097341921  0.5000000000000000  0.0000000000000000
  0.6659189569324722  0.0000000000000000 -0.0000000000000000
 
  0.00000000E+00  0.00000000E+00  0.00000000E+00
  0.00000000E+00  0.00000000E+00  0.00000000E+00
  0.00000000E+00  0.00000000E+00  0.00000000E+00
  0.00000000E+00  0.00000000E+00  0.00000000E+00
