MD-kMC export data                      
   1.00000000000000     
     4.2549599951555601    0.0000000000000000    0.0000000000000000
     0.0000000000000000    2.5297250574967900    0.0000000000000000
     0.0000000000000000    0.0000000000000000   19.5875393065051995
   C 
     4
Direct
  0.0006431199325298 -0.0000000000000000  0.0000000000000000
  0.1660235467341345  0.5000000000000000 -0.0000000000000000
  0.5006431199325299  0.5000000000000000  0.0000000000000000
  0.6660235467341344 -0.0000000000000000 -0.0000000000000000
 
  0.00000000E+00  0.00000000E+00  0.00000000E+00
  0.00000000E+00  0.00000000E+00  0.00000000E+00
  0.00000000E+00  0.00000000E+00  0.00000000E+00
  0.00000000E+00  0.00000000E+00  0.00000000E+00
