MD-kMC export data                      
   1.00000000000000     
     4.3386422452621298    0.0000000000000000    0.0000000000000000
     0.0000000000000000    2.4607419057914299    0.0000000000000000
     0.0000000000000000    0.0000000000000000   19.7482573851620984
   C 
     4
Direct
  0.9996376793492593 -0.0000000000000000  0.0000000000000000
  0.1670289873174046  0.5000000000000000 -0.0000000000000000
  0.4996376793492525  0.5000000000000000  0.0000000000000000
  0.6670289873174050  0.0000000000000000 -0.0000000000000000
 
  0.00000000E+00  0.00000000E+00  0.00000000E+00
  0.00000000E+00  0.00000000E+00  0.00000000E+00
  0.00000000E+00  0.00000000E+00  0.00000000E+00
  0.00000000E+00  0.00000000E+00  0.00000000E+00
