MD-kMC export data                      
   1.00000000000000     
     4.2692532218157204    0.0000000000000000    0.0000000000000000
     0.0000000000000000    2.4800064913826101    0.0000000000000000
     0.0000000000000000    0.0000000000000000   19.9133328198076995
   C 
     4
Direct
  0.0001342566117680 -0.0000000000000000  0.0000000000000000
  0.1665324100548962  0.5000000000000000 -0.0000000000000000
  0.5001342566117752  0.5000000000000000  0.0000000000000000
  0.6665324100548962  0.0000000000000000 -0.0000000000000000
 
  0.00000000E+00  0.00000000E+00  0.00000000E+00
  0.00000000E+00  0.00000000E+00  0.00000000E+00
  0.00000000E+00  0.00000000E+00  0.00000000E+00
  0.00000000E+00  0.00000000E+00  0.00000000E+00
