MD-kMC export data                      
   1.00000000000000     
     4.3382148770346598    0.0000000000000000    0.0000000000000000
     0.0000000000000000    2.4607858579634501    0.0000000000000000
     0.0000000000000000    0.0000000000000000   19.7498500756326010
   C 
     4
Direct
  0.9996398504489024 -0.0000000000000000  0.0000000000000000
  0.1670268162177622  0.5000000000000000 -0.0000000000000000
  0.4996398504488950  0.5000000000000000  0.0000000000000000
  0.6670268162177619  0.0000000000000000 -0.0000000000000000
 
  0.00000000E+00  0.00000000E+00  0.00000000E+00
  0.00000000E+00  0.00000000E+00  0.00000000E+00
  0.00000000E+00  0.00000000E+00  0.00000000E+00
  0.00000000E+00  0.00000000E+00  0.00000000E+00
