MD-kMC export data                      
   1.00000000000000     
     4.2741096429143601    0.0000000000000000    0.0000000000000000
     0.0000000000000000    2.4673724954439300    0.0000000000000000
     0.0000000000000000    0.0000000000000000   19.9925553347171991
   C 
     4
Direct
  0.9999982437148832 -0.0000000000000000  0.0000000000000000
  0.1666684229517812  0.5000000000000000 -0.0000000000000000
  0.4999982437148832  0.5000000000000000  0.0000000000000000
  0.6666684229517811 -0.0000000000000000 -0.0000000000000000
 
  0.00000000E+00  0.00000000E+00  0.00000000E+00
  0.00000000E+00  0.00000000E+00  0.00000000E+00
  0.00000000E+00  0.00000000E+00  0.00000000E+00
  0.00000000E+00  0.00000000E+00  0.00000000E+00
