MD-kMC export data                      
   1.00000000000000     
     4.3591559201805996    0.0000000000000000    0.0000000000000000
     0.0000000000000000    2.4589445717622298    0.0000000000000000
     0.0000000000000000    0.0000000000000000   19.6696912167725984
   C 
     4
Direct
  0.9995429718408705 -0.0000000000000000 -0.0000000000000000
  0.1671236948257937  0.5000000000000000  0.0000000000000000
  0.4995429718408707  0.5000000000000000 -0.0000000000000000
  0.6671236948257938 -0.0000000000000000  0.0000000000000000
 
  0.00000000E+00  0.00000000E+00  0.00000000E+00
  0.00000000E+00  0.00000000E+00  0.00000000E+00
  0.00000000E+00  0.00000000E+00  0.00000000E+00
  0.00000000E+00  0.00000000E+00  0.00000000E+00
