MD-kMC export data                      
   1.00000000000000     
     4.3583011837256900    0.0000000000000000    0.0000000000000000
     0.0000000000000000    2.4590287046848300    0.0000000000000000
     0.0000000000000000    0.0000000000000000   19.6728756668423000
 C 
     4
Direct
  0.9995429718408705 -0.0000000000000000 -0.0000000000000000
  0.1671236948257937  0.5000000000000000  0.0000000000000000
  0.4995429718408707  0.5000000000000000 -0.0000000000000000
  0.6671236948257938 -0.0000000000000000  0.0000000000000000
 
  0.00000000E+00  0.00000000E+00  0.00000000E+00
  0.00000000E+00  0.00000000E+00  0.00000000E+00
  0.00000000E+00  0.00000000E+00  0.00000000E+00
  0.00000000E+00  0.00000000E+00  0.00000000E+00
