MD-kMC export data                      
   1.00000000000000     
     4.3380011929209301    0.0000000000000000    0.0000000000000000
     0.0000000000000000    2.4608078340494699    0.0000000000000000
     0.0000000000000000    0.0000000000000000   19.7506465432742004
   C 
     4
Direct
  0.9996409342573354  0.0000000000000000 -0.0000000000000000
  0.1670257324093288  0.5000000000000000  0.0000000000000000
  0.4996409342573283  0.5000000000000000 -0.0000000000000000
  0.6670257324093289 -0.0000000000000000  0.0000000000000000
 
  0.00000000E+00  0.00000000E+00  0.00000000E+00
  0.00000000E+00  0.00000000E+00  0.00000000E+00
  0.00000000E+00  0.00000000E+00  0.00000000E+00
  0.00000000E+00  0.00000000E+00  0.00000000E+00
