MD-kMC export data                      
   1.00000000000000     
     4.2726138541182204    0.0000000000000000    0.0000000000000000
     0.0000000000000000    2.4675479871777801    0.0000000000000000
     0.0000000000000000    0.0000000000000000   19.9981321128170997
   C 
     4
Direct
  1.0000074489667696  0.0000000000000000 -0.0000000000000000
  0.1666592176998948  0.5000000000000000  0.0000000000000000
  0.5000074489667694  0.5000000000000000 -0.0000000000000000
  0.6666592176998949  0.0000000000000000  0.0000000000000000
 
  0.00000000E+00  0.00000000E+00  0.00000000E+00
  0.00000000E+00  0.00000000E+00  0.00000000E+00
  0.00000000E+00  0.00000000E+00  0.00000000E+00
  0.00000000E+00  0.00000000E+00  0.00000000E+00
