MD-kMC export data                      
   1.00000000000000     
     4.4014653747000301    0.0000000000000000    0.0000000000000000
     0.0000000000000000    2.4554405840829201    0.0000000000000000
     0.0000000000000000    0.0000000000000000   19.5084140866363995
   C 
     4
Direct
  0.9993910655873157 -0.0000000000000000  0.0000000000000000
  0.1672756010793487  0.5000000000000000 -0.0000000000000000
  0.4993910655873157  0.5000000000000000  0.0000000000000000
  0.6672756010793486 -0.0000000000000000 -0.0000000000000000
 
  0.00000000E+00  0.00000000E+00  0.00000000E+00
  0.00000000E+00  0.00000000E+00  0.00000000E+00
  0.00000000E+00  0.00000000E+00  0.00000000E+00
  0.00000000E+00  0.00000000E+00  0.00000000E+00
