MD-kMC export data                      
   1.00000000000000     
     4.3377875088071898    0.0000000000000000    0.0000000000000000
     0.0000000000000000    2.4608298101354800    0.0000000000000000
     0.0000000000000000    0.0000000000000000   19.7514430925360003
   C 
     4
Direct
  0.9996420232710048  0.0000000000000000 -0.0000000000000000
  0.1670246433956595  0.5000000000000000  0.0000000000000000
  0.4996420232709977  0.5000000000000000 -0.0000000000000000
  0.6670246433956595  0.0000000000000000  0.0000000000000000
 
  0.00000000E+00  0.00000000E+00  0.00000000E+00
  0.00000000E+00  0.00000000E+00  0.00000000E+00
  0.00000000E+00  0.00000000E+00  0.00000000E+00
  0.00000000E+00  0.00000000E+00  0.00000000E+00
