MD-kMC export data                      
   1.00000000000000     
     4.2552565857223899    0.0000000000000000    0.0000000000000000
     0.0000000000000000    2.5287380884424100    0.0000000000000000
     0.0000000000000000    0.0000000000000000   19.5938185624836017
   C 
     4
Direct
  0.0006337811865133 -0.0000000000000000 -0.0000000000000000
  0.1660328854801510  0.5000000000000000  0.0000000000000000
  0.5006337811865131  0.5000000000000000 -0.0000000000000000
  0.6660328854801512  0.0000000000000000  0.0000000000000000
 
  0.00000000E+00  0.00000000E+00  0.00000000E+00
  0.00000000E+00  0.00000000E+00  0.00000000E+00
  0.00000000E+00  0.00000000E+00  0.00000000E+00
  0.00000000E+00  0.00000000E+00  0.00000000E+00
