MD-kMC export data                      
   1.00000000000000     
     4.2959054225152604    0.0000000000000000    0.0000000000000000
     0.0000000000000000    2.4648153301793001    0.0000000000000000
     0.0000000000000000    0.0000000000000000   19.9117571493072987
   C 
     4
Direct
  0.9998688948002088 -0.0000000000000000  0.0000000000000000
  0.1667977718664555  0.5000000000000000 -0.0000000000000000
  0.4998688948002087  0.5000000000000000  0.0000000000000000
  0.6667977718664555 -0.0000000000000000 -0.0000000000000000
 
  0.00000000E+00  0.00000000E+00  0.00000000E+00
  0.00000000E+00  0.00000000E+00  0.00000000E+00
  0.00000000E+00  0.00000000E+00  0.00000000E+00
  0.00000000E+00  0.00000000E+00  0.00000000E+00
