MD-kMC export data                      
   1.00000000000000     
     4.2619772213078102    0.0000000000000000    0.0000000000000000
     0.0000000000000000    2.5045573466102100    0.0000000000000000
     0.0000000000000000    0.0000000000000000   19.7517954958400992
   C 
     4
Direct
  0.0003951700364603 -0.0000000000000000  0.0000000000000000
  0.1662714966302040  0.5000000000000000 -0.0000000000000000
  0.5003951700364604  0.5000000000000000  0.0000000000000000
  0.6662714966302039  0.0000000000000000 -0.0000000000000000
 
  0.00000000E+00  0.00000000E+00  0.00000000E+00
  0.00000000E+00  0.00000000E+00  0.00000000E+00
  0.00000000E+00  0.00000000E+00  0.00000000E+00
  0.00000000E+00  0.00000000E+00  0.00000000E+00
