MD-kMC export data                      
   1.00000000000000     
     4.2738959588006296    0.0000000000000000    0.0000000000000000
     0.0000000000000000    2.4673975656916300    0.0000000000000000
     0.0000000000000000    0.0000000000000000   19.9933517659261994
   C 
     4
Direct
  0.9999995558883460 -0.0000000000000000  0.0000000000000000
  0.1666671107783183  0.5000000000000000 -0.0000000000000000
  0.4999995558883459  0.5000000000000000  0.0000000000000000
  0.6666671107783185 -0.0000000000000000 -0.0000000000000000
 
  0.00000000E+00  0.00000000E+00  0.00000000E+00
  0.00000000E+00  0.00000000E+00  0.00000000E+00
  0.00000000E+00  0.00000000E+00  0.00000000E+00
  0.00000000E+00  0.00000000E+00  0.00000000E+00
