MD-kMC export data                      
   1.00000000000000     
     4.3174875180024301    0.0000000000000000    0.0000000000000000
     0.0000000000000000    2.4626924425173500    0.0000000000000000
     0.0000000000000000    0.0000000000000000   19.8293015132672998
   C 
     4
Direct
  0.9997480300707848  0.0000000000000000 -0.0000000000000000
  0.1669186365958795  0.5000000000000000  0.0000000000000000
  0.4997480300707848  0.5000000000000000 -0.0000000000000000
  0.6669186365958795  0.0000000000000000  0.0000000000000000
 
  0.00000000E+00  0.00000000E+00  0.00000000E+00
  0.00000000E+00  0.00000000E+00  0.00000000E+00
  0.00000000E+00  0.00000000E+00  0.00000000E+00
  0.00000000E+00  0.00000000E+00  0.00000000E+00
