MD-kMC export data                      
   1.00000000000000     
     4.3174875180024300    0.0000000000000000    0.0000000000000000
     0.0000000000000000    2.4626924425173500     0.0000000000000000
     0.0000000000000000    0.0000000000000000  19.8293015132673000
   C 
     4
Direct
  0.9997541186099431 -0.0000000000000000  0.0000000000000000
  0.1669125480567212  0.5000000000000000 -0.0000000000000000
  0.4997541186099431  0.5000000000000000  0.0000000000000000
  0.6669125480567212  0.0000000000000000 -0.0000000000000000
 
  0.00000000E+00  0.00000000E+00  0.00000000E+00
  0.00000000E+00  0.00000000E+00  0.00000000E+00
  0.00000000E+00  0.00000000E+00  0.00000000E+00
  0.00000000E+00  0.00000000E+00  0.00000000E+00
