MD-kMC export data                      
   1.00000000000000     
     4.3587285519531598    0.0000000000000000    0.0000000000000000
     0.0000000000000000    2.4589863110926400    0.0000000000000000
     0.0000000000000000    0.0000000000000000   19.6712858969011002
   C 
     4
Direct
  0.9995448512462068 -0.0000000000000000 -0.0000000000000000
  0.1671218154204575  0.5000000000000000  0.0000000000000000
  0.4995448512462067  0.5000000000000000 -0.0000000000000000
  0.6671218154204575  0.0000000000000000  0.0000000000000000
 
  0.00000000E+00  0.00000000E+00  0.00000000E+00
  0.00000000E+00  0.00000000E+00  0.00000000E+00
  0.00000000E+00  0.00000000E+00  0.00000000E+00
  0.00000000E+00  0.00000000E+00  0.00000000E+00
