MD-kMC export data                      
   1.00000000000000     
     4.2695137543375496    0.0000000000000000    0.0000000000000000
     0.0000000000000000    2.4792662645918302    0.0000000000000000
     0.0000000000000000    0.0000000000000000   19.9180627753867014
   C 
     4
Direct
  0.0001263127275167 -0.0000000000000000 -0.0000000000000000
  0.1665403539391475  0.5000000000000000  0.0000000000000000
  0.5001263127275237  0.5000000000000000 -0.0000000000000000
  0.6665403539391477  0.0000000000000000  0.0000000000000000
 
  0.00000000E+00  0.00000000E+00  0.00000000E+00
  0.00000000E+00  0.00000000E+00  0.00000000E+00
  0.00000000E+00  0.00000000E+00  0.00000000E+00
  0.00000000E+00  0.00000000E+00  0.00000000E+00
