MD-kMC export data                      
   1.00000000000000     
     4.4027474793824304    0.0000000000000000    0.0000000000000000
     0.0000000000000000    2.4553203628268299    0.0000000000000000
     0.0000000000000000    0.0000000000000000   19.5036880508632997
   C 
     4
Direct
  0.9993872228566839  0.0000000000000000  0.0000000000000000
  0.1672794438099805  0.5000000000000000 -0.0000000000000000
  0.4993872228566837  0.5000000000000000  0.0000000000000000
  0.6672794438099804  0.0000000000000000 -0.0000000000000000
 
  0.00000000E+00  0.00000000E+00  0.00000000E+00
  0.00000000E+00  0.00000000E+00  0.00000000E+00
  0.00000000E+00  0.00000000E+00  0.00000000E+00
  0.00000000E+00  0.00000000E+00  0.00000000E+00
