MD-kMC export data                      
   1.00000000000000     
     4.2520098088139502    0.0000000000000000    0.0000000000000000
     0.0000000000000000    2.5408284593585102    0.0000000000000000
     0.0000000000000000    0.0000000000000000   19.5154730006839010
   C 
     4
Direct
  0.0007422360455266 -0.0000000000000000 -0.0000000000000000
  0.1659244306211377  0.5000000000000000  0.0000000000000000
  0.5007422360455264  0.5000000000000000 -0.0000000000000000
  0.6659244306211379 -0.0000000000000000  0.0000000000000000
 
  0.00000000E+00  0.00000000E+00  0.00000000E+00
  0.00000000E+00  0.00000000E+00  0.00000000E+00
  0.00000000E+00  0.00000000E+00  0.00000000E+00
  0.00000000E+00  0.00000000E+00  0.00000000E+00
