MD-kMC export data                      
   1.00000000000000     
     4.2950506860602999    0.0000000000000000    0.0000000000000000
     0.0000000000000000    2.4649156111700998    0.0000000000000000
     0.0000000000000000    0.0000000000000000   19.9149094501217014
   C 
     4
Direct
  0.9998738867260102  0.0000000000000000 -0.0000000000000000
  0.1667927799406541  0.5000000000000000  0.0000000000000000
  0.4998738867260102  0.5000000000000000 -0.0000000000000000
  0.6667927799406541  0.0000000000000000  0.0000000000000000
 
  0.00000000E+00  0.00000000E+00  0.00000000E+00
  0.00000000E+00  0.00000000E+00  0.00000000E+00
  0.00000000E+00  0.00000000E+00  0.00000000E+00
  0.00000000E+00  0.00000000E+00  0.00000000E+00
