MD-kMC export data                      
   1.00000000000000     
     4.3585148678394301    0.0000000000000000    0.0000000000000000
     0.0000000000000000    2.4590075078887401    0.0000000000000000
     0.0000000000000000    0.0000000000000000   19.6720807414392986
   C 
     4
Direct
  0.9995458043694609 -0.0000000000000000  0.0000000000000000
  0.1671208622972034  0.5000000000000000 -0.0000000000000000
  0.4995458043694608  0.5000000000000000  0.0000000000000000
  0.6671208622972034  0.0000000000000000 -0.0000000000000000
 
  0.00000000E+00  0.00000000E+00  0.00000000E+00
  0.00000000E+00  0.00000000E+00  0.00000000E+00
  0.00000000E+00  0.00000000E+00  0.00000000E+00
  0.00000000E+00  0.00000000E+00  0.00000000E+00
