MD-kMC export data                      
   1.00000000000000     
     4.2655930535356799    0.0000000000000000    0.0000000000000000
     0.0000000000000000    2.4920968622987099    0.0000000000000000
     0.0000000000000000    0.0000000000000000   19.8337276748635993
   C 
     4
Direct
  0.0002629852729491 -0.0000000000000000  0.0000000000000000
  0.1664036813937153  0.5000000000000000 -0.0000000000000000
  0.5002629852729490  0.5000000000000000  0.0000000000000000
  0.6664036813937153 -0.0000000000000000 -0.0000000000000000
 
  0.00000000E+00  0.00000000E+00  0.00000000E+00
  0.00000000E+00  0.00000000E+00  0.00000000E+00
  0.00000000E+00  0.00000000E+00  0.00000000E+00
  0.00000000E+00  0.00000000E+00  0.00000000E+00
