MD-kMC export data                      
   1.00000000000000     
     4.2655930535356800    0.0000000000000000    0.0000000000000000
     0.0000000000000000    2.4920968622987100   0.0000000000000000
     0.0000000000000000    0.0000000000000000   19.8337276748636000
   C 
     4
Direct
  0.0002629662176382  0.0000000000000000 -0.0000000000000000
  0.1664037004490261  0.5000000000000000  0.0000000000000000
  0.5002629662176381  0.5000000000000000 -0.0000000000000000
  0.6664037004490262  0.0000000000000000  0.0000000000000000
 
  0.00000000E+00  0.00000000E+00  0.00000000E+00
  0.00000000E+00  0.00000000E+00  0.00000000E+00
  0.00000000E+00  0.00000000E+00  0.00000000E+00
  0.00000000E+00  0.00000000E+00  0.00000000E+00
