MD-kMC export data                      
   1.00000000000000     
     4.2952643701740598    0.0000000000000000    0.0000000000000000
     0.0000000000000000    2.4648905409223798    0.0000000000000000
     0.0000000000000000    0.0000000000000000   19.9141212511204984
   C 
     4
Direct
  0.9998726377659233 -0.0000000000000000 -0.0000000000000000
  0.1667940289007410  0.5000000000000000  0.0000000000000000
  0.4998726377659232  0.5000000000000000 -0.0000000000000000
  0.6667940289007410  0.0000000000000000  0.0000000000000000
 
  0.00000000E+00  0.00000000E+00  0.00000000E+00
  0.00000000E+00  0.00000000E+00  0.00000000E+00
  0.00000000E+00  0.00000000E+00  0.00000000E+00
  0.00000000E+00  0.00000000E+00  0.00000000E+00
