MD-kMC export data                      
   1.00000000000000     
     4.2654717152184096    0.0000000000000000    0.0000000000000000
     0.0000000000000000    2.4924669756941000    0.0000000000000000
     0.0000000000000000    0.0000000000000000   19.8313466281775987
   C 
     4
Direct
  0.0002670293611512  0.0000000000000000  0.0000000000000000
  0.1663996373055130  0.5000000000000000 -0.0000000000000000
  0.5002670293611514  0.5000000000000000  0.0000000000000000
  0.6663996373055129 -0.0000000000000000 -0.0000000000000000
 
  0.00000000E+00  0.00000000E+00  0.00000000E+00
  0.00000000E+00  0.00000000E+00  0.00000000E+00
  0.00000000E+00  0.00000000E+00  0.00000000E+00
  0.00000000E+00  0.00000000E+00  0.00000000E+00
