MD-kMC export data                      
   1.00000000000000     
     4.2735085863390001    0.0000000000000000    0.0000000000000000
     0.0000000000000000    2.4679161204665099    0.0000000000000000
     0.0000000000000000    0.0000000000000000   19.9909627111806998
   C 
     4
Direct
  0.0000061076037497 -0.0000000000000000  0.0000000000000000
  0.1666605590629146  0.5000000000000000 -0.0000000000000000
  0.5000061076037570  0.5000000000000000  0.0000000000000000
  0.6666605590629143  0.0000000000000000 -0.0000000000000000
 
  0.00000000E+00  0.00000000E+00  0.00000000E+00
  0.00000000E+00  0.00000000E+00  0.00000000E+00
  0.00000000E+00  0.00000000E+00  0.00000000E+00
  0.00000000E+00  0.00000000E+00  0.00000000E+00
