MD-kMC export data                      
   1.00000000000000     
     4.3591559201806298    0.0000000000000000    0.0000000000000000
     0.0000000000000000    2.4589439175004499    0.0000000000000000
     0.0000000000000000    0.0000000000000000   19.6696964503720011
   C 
     4
Direct
  0.9995429636982804  0.0000000000000000 -0.0000000000000000
  0.1671237029683838  0.5000000000000000  0.0000000000000000
  0.4995429636982804  0.5000000000000000 -0.0000000000000000
  0.6671237029683839 -0.0000000000000000  0.0000000000000000
 
  0.00000000E+00  0.00000000E+00  0.00000000E+00
  0.00000000E+00  0.00000000E+00  0.00000000E+00
  0.00000000E+00  0.00000000E+00  0.00000000E+00
  0.00000000E+00  0.00000000E+00  0.00000000E+00
