MD-kMC export data                      
   1.00000000000000     
     4.2621716574104500    0.0000000000000000    0.0000000000000000
     0.0000000000000000    2.5039404909512202    0.0000000000000000
     0.0000000000000000    0.0000000000000000   19.7557601493321009
   C 
     4
Direct
  0.0003886104297032 -0.0000000000000000 -0.0000000000000000
  0.1662780562369612  0.5000000000000000  0.0000000000000000
  0.5003886104297031  0.5000000000000000 -0.0000000000000000
  0.6662780562369612 -0.0000000000000000  0.0000000000000000
 
  0.00000000E+00  0.00000000E+00  0.00000000E+00
  0.00000000E+00  0.00000000E+00  0.00000000E+00
  0.00000000E+00  0.00000000E+00  0.00000000E+00
  0.00000000E+00  0.00000000E+00  0.00000000E+00
