MD-kMC export data                      
   1.00000000000000     
     4.2694703322505800    0.0000000000000000    0.0000000000000000
     0.0000000000000000    2.4793896357236300    0.0000000000000000
     0.0000000000000000    0.0000000000000000   19.9172742430253003
   C 
     4
Direct
  0.0001276327196551 -0.0000000000000000  0.0000000000000000
  0.1665390339470091  0.5000000000000000 -0.0000000000000000
  0.5001276327196618  0.5000000000000000  0.0000000000000000
  0.6665390339470096 -0.0000000000000000 -0.0000000000000000
 
  0.00000000E+00  0.00000000E+00  0.00000000E+00
  0.00000000E+00  0.00000000E+00  0.00000000E+00
  0.00000000E+00  0.00000000E+00  0.00000000E+00
  0.00000000E+00  0.00000000E+00  0.00000000E+00
