MD-kMC export data                      
   1.00000000000000     
     4.2954780542877904    0.0000000000000000    0.0000000000000000
     0.0000000000000000    2.4648654706746900    0.0000000000000000
     0.0000000000000000    0.0000000000000000   19.9133331346591014
   C 
     4
Direct
  0.9998713870229420  0.0000000000000000  0.0000000000000000
  0.1667952796437223  0.5000000000000000 -0.0000000000000000
  0.4998713870229420  0.5000000000000000  0.0000000000000000
  0.6667952796437223  0.0000000000000000 -0.0000000000000000
 
  0.00000000E+00  0.00000000E+00  0.00000000E+00
  0.00000000E+00  0.00000000E+00  0.00000000E+00
  0.00000000E+00  0.00000000E+00  0.00000000E+00
  0.00000000E+00  0.00000000E+00  0.00000000E+00
