MD-kMC export data                      
   1.00000000000000     
     4.4025337952686998    0.0000000000000000    0.0000000000000000
     0.0000000000000000    2.4553403997028500    0.0000000000000000
     0.0000000000000000    0.0000000000000000   19.5044755258431017
   C 
     4
Direct
  0.9993878578723928 -0.0000000000000000 -0.0000000000000000
  0.1672788087942715  0.5000000000000000  0.0000000000000000
  0.4993878578723929  0.5000000000000000 -0.0000000000000000
  0.6672788087942715 -0.0000000000000000  0.0000000000000000
 
  0.00000000E+00  0.00000000E+00  0.00000000E+00
  0.00000000E+00  0.00000000E+00  0.00000000E+00
  0.00000000E+00  0.00000000E+00  0.00000000E+00
  0.00000000E+00  0.00000000E+00  0.00000000E+00
