MD-kMC export data                      
   1.00000000000000     
    4.4025337952687000     0.0000000000000000    0.0000000000000000
     0.0000000000000000   2.4553403997028500   0.0000000000000000
     0.0000000000000000    0.0000000000000000  19.5044755258431000 
  C 
     4
Direct
  0.9993897860879641  0.0000000000000000 -0.0000000000000000
  0.1672768805787002  0.5000000000000000  0.0000000000000000
  0.4993897860879641  0.5000000000000000 -0.0000000000000000
  0.6672768805787002 -0.0000000000000000  0.0000000000000000
 
  0.00000000E+00  0.00000000E+00  0.00000000E+00
  0.00000000E+00  0.00000000E+00  0.00000000E+00
  0.00000000E+00  0.00000000E+00  0.00000000E+00
  0.00000000E+00  0.00000000E+00  0.00000000E+00
