MD-kMC export data                      
   1.00000000000000     
     4.3580874996119601    0.0000000000000000    0.0000000000000000
     0.0000000000000000    2.4590499014809302    0.0000000000000000
     0.0000000000000000    0.0000000000000000   19.6736706731220998
   C 
     4
Direct
  0.9995477014434927  0.0000000000000000  0.0000000000000000
  0.1671189652231715  0.5000000000000000 -0.0000000000000000
  0.4995477014434928  0.5000000000000000  0.0000000000000000
  0.6671189652231716  0.0000000000000000 -0.0000000000000000
 
  0.00000000E+00  0.00000000E+00  0.00000000E+00
  0.00000000E+00  0.00000000E+00  0.00000000E+00
  0.00000000E+00  0.00000000E+00  0.00000000E+00
  0.00000000E+00  0.00000000E+00  0.00000000E+00
