MD-kMC export data                      
   1.00000000000000     
     4.3798832792128604    0.0000000000000000    0.0000000000000000
     0.0000000000000000    2.4571982842344302    0.0000000000000000
     0.0000000000000000    0.0000000000000000   19.5905191219788009
   C 
     4
Direct
  0.9994611161804189 -0.0000000000000000  0.0000000000000000
  0.1672055504862455  0.5000000000000000  0.0000000000000000
  0.4994611161804189  0.5000000000000000  0.0000000000000000
  0.6672055504862454  0.0000000000000000  0.0000000000000000
 
  0.00000000E+00  0.00000000E+00  0.00000000E+00
  0.00000000E+00  0.00000000E+00  0.00000000E+00
  0.00000000E+00  0.00000000E+00  0.00000000E+00
  0.00000000E+00  0.00000000E+00  0.00000000E+00
