Automatic mesh
0
Gamma
24  36   1
 0   0   0 
