MD-kMC export data                      
   1.00000000000000     
     4.2692097997287499    0.0000000000000000    0.0000000000000000
     0.0000000000000000    2.4801298625144099    0.0000000000000000
     0.0000000000000000    0.0000000000000000   19.9125447827966013
   C 
     4
Direct
  0.0001355810358156 -0.0000000000000000 -0.0000000000000000
  0.1665310856308487  0.5000000000000000  0.0000000000000000
  0.5001355810358228  0.5000000000000000 -0.0000000000000000
  0.6665310856308486 -0.0000000000000000  0.0000000000000000
 
  0.00000000E+00  0.00000000E+00  0.00000000E+00
  0.00000000E+00  0.00000000E+00  0.00000000E+00
  0.00000000E+00  0.00000000E+00  0.00000000E+00
  0.00000000E+00  0.00000000E+00  0.00000000E+00
