MD-kMC export data                      
   1.00000000000000     
     4.2747506952555598    0.0000000000000000    0.0000000000000000
     0.0000000000000000    2.4672972847008601    0.0000000000000000
     0.0000000000000000    0.0000000000000000   19.9901665435942988
   C 
     4
Direct
  0.9999943196339578  0.0000000000000000  0.0000000000000000
  0.1666723470327065  0.5000000000000000 -0.0000000000000000
  0.4999943196339578  0.5000000000000000  0.0000000000000000
  0.6666723470327064 -0.0000000000000000 -0.0000000000000000
 
  0.00000000E+00  0.00000000E+00  0.00000000E+00
  0.00000000E+00  0.00000000E+00  0.00000000E+00
  0.00000000E+00  0.00000000E+00  0.00000000E+00
  0.00000000E+00  0.00000000E+00  0.00000000E+00
