MD-kMC export data                      
   1.00000000000000     
     4.2653908230069000    0.0000000000000000    0.0000000000000000
     0.0000000000000000    2.4927137179577001    0.0000000000000000
     0.0000000000000000    0.0000000000000000   19.8297596743637996
   C 
     4
Direct
  0.0002697234933259  0.0000000000000000  0.0000000000000000
  0.1663969431733384  0.5000000000000000 -0.0000000000000000
  0.5002697234933259  0.5000000000000000  0.0000000000000000
  0.6663969431733384  0.0000000000000000 -0.0000000000000000
 
  0.00000000E+00  0.00000000E+00  0.00000000E+00
  0.00000000E+00  0.00000000E+00  0.00000000E+00
  0.00000000E+00  0.00000000E+00  0.00000000E+00
  0.00000000E+00  0.00000000E+00  0.00000000E+00
