MD-kMC export data                      
   1.00000000000000     
     4.2552936595432396    0.0000000000000000    0.0000000000000000
     0.0000000000000000    2.5286147173106102    0.0000000000000000
     0.0000000000000000    0.0000000000000000   19.5946038275288004
   C 
     4
Direct
  0.0006326123351899 -0.0000000000000000 -0.0000000000000000
  0.1660340543314744  0.5000000000000000  0.0000000000000000
  0.5006326123351899  0.5000000000000000 -0.0000000000000000
  0.6660340543314744  0.0000000000000000  0.0000000000000000
 
  0.00000000E+00  0.00000000E+00  0.00000000E+00
  0.00000000E+00  0.00000000E+00  0.00000000E+00
  0.00000000E+00  0.00000000E+00  0.00000000E+00
  0.00000000E+00  0.00000000E+00  0.00000000E+00
