MD-kMC export data                      
   1.00000000000000     
     4.3388559293758702    0.0000000000000000    0.0000000000000000
     0.0000000000000000    2.4607199297054199    0.0000000000000000
     0.0000000000000000    0.0000000000000000   19.7474611623092997
   C 
     4
Direct
  0.9996365973459966  0.0000000000000000 -0.0000000000000000
  0.1670300693206677  0.5000000000000000  0.0000000000000000
  0.4996365973459895  0.5000000000000000 -0.0000000000000000
  0.6670300693206677 -0.0000000000000000  0.0000000000000000
 
  0.00000000E+00  0.00000000E+00  0.00000000E+00
  0.00000000E+00  0.00000000E+00  0.00000000E+00
  0.00000000E+00  0.00000000E+00  0.00000000E+00
  0.00000000E+00  0.00000000E+00  0.00000000E+00
