MD-kMC export data                      
   1.00000000000000     
     4.3589422360668904    0.0000000000000000    0.0000000000000000
     0.0000000000000000    2.4589651142965399    0.0000000000000000
     0.0000000000000000    0.0000000000000000   19.6704911332159007
   C 
     4
Direct
  0.9995439078207102 -0.0000000000000000 -0.0000000000000000
  0.1671227588459541  0.5000000000000000  0.0000000000000000
  0.4995439078207102  0.5000000000000000 -0.0000000000000000
  0.6671227588459541  0.0000000000000000  0.0000000000000000
 
  0.00000000E+00  0.00000000E+00  0.00000000E+00
  0.00000000E+00  0.00000000E+00  0.00000000E+00
  0.00000000E+00  0.00000000E+00  0.00000000E+00
  0.00000000E+00  0.00000000E+00  0.00000000E+00
