MD-kMC export data                      
   1.00000000000000     
     4.3589422360668900    0.0000000000000000    0.0000000000000000
     0.0000000000000000    2.4589651142965400    0.0000000000000000
     0.0000000000000000    0.0000000000000000   19.6704911332159000
 C 
     4
Direct
  0.9995429718408705 -0.0000000000000000 -0.0000000000000000
  0.1671236948257937  0.5000000000000000  0.0000000000000000
  0.4995429718408707  0.5000000000000000 -0.0000000000000000
  0.6671236948257938 -0.0000000000000000  0.0000000000000000
 
  0.00000000E+00  0.00000000E+00  0.00000000E+00
  0.00000000E+00  0.00000000E+00  0.00000000E+00
  0.00000000E+00  0.00000000E+00  0.00000000E+00
  0.00000000E+00  0.00000000E+00  0.00000000E+00
