MD-kMC export data                      
   1.00000000000000     
     4.4029611634961698    0.0000000000000000    0.0000000000000000
     0.0000000000000000    2.4553003259508199    0.0000000000000000
     0.0000000000000000    0.0000000000000000   19.5029006549164983
   C 
     4
Direct
  0.9993865888741660  0.0000000000000000  0.0000000000000000
  0.1672800777924983  0.5000000000000000 -0.0000000000000000
  0.4993865888741660  0.5000000000000000  0.0000000000000000
  0.6672800777924983  0.0000000000000000 -0.0000000000000000
 
  0.00000000E+00  0.00000000E+00  0.00000000E+00
  0.00000000E+00  0.00000000E+00  0.00000000E+00
  0.00000000E+00  0.00000000E+00  0.00000000E+00
  0.00000000E+00  0.00000000E+00  0.00000000E+00
