MD-kMC export data                      
   1.00000000000000     
     4.4010380064725600    0.0000000000000000    0.0000000000000000
     0.0000000000000000    2.4554806578349502    0.0000000000000000
     0.0000000000000000    0.0000000000000000   19.5099900645849011
   C 
     4
Direct
  0.9993923521176632  0.0000000000000000  0.0000000000000000
  0.1672743145490012  0.5000000000000000 -0.0000000000000000
  0.4993923521176631  0.5000000000000000  0.0000000000000000
  0.6672743145490011  0.0000000000000000 -0.0000000000000000
 
  0.00000000E+00  0.00000000E+00  0.00000000E+00
  0.00000000E+00  0.00000000E+00  0.00000000E+00
  0.00000000E+00  0.00000000E+00  0.00000000E+00
  0.00000000E+00  0.00000000E+00  0.00000000E+00
