MD-kMC export data                      
   1.00000000000000     
     4.3811653838952704    0.0000000000000000    0.0000000000000000
     0.0000000000000000    2.4570748514170702    0.0000000000000000
     0.0000000000000000    0.0000000000000000   19.5857700054568014
   C 
     4
Direct
  0.9994563474047514  0.0000000000000000  0.0000000000000000
  0.1672103192619129  0.5000000000000000 -0.0000000000000000
  0.4994563474047514  0.5000000000000000  0.0000000000000000
  0.6672103192619129 -0.0000000000000000 -0.0000000000000000
 
  0.00000000E+00  0.00000000E+00  0.00000000E+00
  0.00000000E+00  0.00000000E+00  0.00000000E+00
  0.00000000E+00  0.00000000E+00  0.00000000E+00
  0.00000000E+00  0.00000000E+00  0.00000000E+00
