MD-kMC export data                      
   1.00000000000000     
     4.2551824380806798    0.0000000000000000    0.0000000000000000
     0.0000000000000000    2.5289848307060101    0.0000000000000000
     0.0000000000000000    0.0000000000000000   19.5922482711612993
   C 
     4
Direct
  0.0006361206421308 -0.0000000000000000 -0.0000000000000000
  0.1660305460245335  0.5000000000000000  0.0000000000000000
  0.5006361206421307  0.5000000000000000 -0.0000000000000000
  0.6660305460245336 -0.0000000000000000  0.0000000000000000
 
  0.00000000E+00  0.00000000E+00  0.00000000E+00
  0.00000000E+00  0.00000000E+00  0.00000000E+00
  0.00000000E+00  0.00000000E+00  0.00000000E+00
  0.00000000E+00  0.00000000E+00  0.00000000E+00
