MD-kMC export data                      
   1.00000000000000     
     4.2618216724257003    0.0000000000000000    0.0000000000000000
     0.0000000000000000    2.5050508311373898    0.0000000000000000
     0.0000000000000000    0.0000000000000000   19.7486252380676000
   C 
     4
Direct
  0.0004004098370610  0.0000000000000000 -0.0000000000000000
  0.1662662568296032  0.5000000000000000  0.0000000000000000
  0.5004004098370609  0.5000000000000000 -0.0000000000000000
  0.6662662568296034 -0.0000000000000000  0.0000000000000000
 
  0.00000000E+00  0.00000000E+00  0.00000000E+00
  0.00000000E+00  0.00000000E+00  0.00000000E+00
  0.00000000E+00  0.00000000E+00  0.00000000E+00
  0.00000000E+00  0.00000000E+00  0.00000000E+00
