MD-kMC export data                      
   1.00000000000000     
     4.3369327723522604    0.0000000000000000    0.0000000000000000
     0.0000000000000000    2.4609177144795300    0.0000000000000000
     0.0000000000000000    0.0000000000000000   19.7546301060249014
   C 
     4
Direct
  0.9996463830476461  0.0000000000000000 -0.0000000000000000
  0.1670202836190182  0.5000000000000000  0.0000000000000000
  0.4996463830476389  0.5000000000000000 -0.0000000000000000
  0.6670202836190182  0.0000000000000000  0.0000000000000000
 
  0.00000000E+00  0.00000000E+00  0.00000000E+00
  0.00000000E+00  0.00000000E+00  0.00000000E+00
  0.00000000E+00  0.00000000E+00  0.00000000E+00
  0.00000000E+00  0.00000000E+00  0.00000000E+00
