MD-kMC export data                      
   1.00000000000000     
     4.2944096337191198    0.0000000000000000    0.0000000000000000
     0.0000000000000000    2.4649908219131502    0.0000000000000000
     0.0000000000000000    0.0000000000000000   19.9172745424869007
   C 
     4
Direct
  0.9998776350172905  0.0000000000000000  0.0000000000000000
  0.1667890316493738  0.5000000000000000 -0.0000000000000000
  0.4998776350172904  0.5000000000000000  0.0000000000000000
  0.6667890316493738  0.0000000000000000 -0.0000000000000000
 
  0.00000000E+00  0.00000000E+00  0.00000000E+00
  0.00000000E+00  0.00000000E+00  0.00000000E+00
  0.00000000E+00  0.00000000E+00  0.00000000E+00
  0.00000000E+00  0.00000000E+00  0.00000000E+00
