MD-kMC export data                      
   1.00000000000000     
     4.3384285611484001    0.0000000000000000    0.0000000000000000
     0.0000000000000000    2.4607638818774400    0.0000000000000000
     0.0000000000000000    0.0000000000000000   19.7490536895992008
   C 
     4
Direct
  0.9996387600150349  0.0000000000000000 -0.0000000000000000
  0.1670279066516289  0.5000000000000000  0.0000000000000000
  0.4996387600150288  0.5000000000000000 -0.0000000000000000
  0.6670279066516294 -0.0000000000000000  0.0000000000000000
 
  0.00000000E+00  0.00000000E+00  0.00000000E+00
  0.00000000E+00  0.00000000E+00  0.00000000E+00
  0.00000000E+00  0.00000000E+00  0.00000000E+00
  0.00000000E+00  0.00000000E+00  0.00000000E+00
