MD-kMC export data                      
   1.00000000000000     
     4.2695571764245299    0.0000000000000000    0.0000000000000000
     0.0000000000000000    2.4791428934600299    0.0000000000000000
     0.0000000000000000    0.0000000000000000   19.9188513903491007
   C 
     4
Direct
  0.0001249878649521 -0.0000000000000000  0.0000000000000000
  0.1665416788017122  0.5000000000000000 -0.0000000000000000
  0.5001249878649593  0.5000000000000000  0.0000000000000000
  0.6665416788017120 -0.0000000000000000 -0.0000000000000000
 
  0.00000000E+00  0.00000000E+00  0.00000000E+00
  0.00000000E+00  0.00000000E+00  0.00000000E+00
  0.00000000E+00  0.00000000E+00  0.00000000E+00
  0.00000000E+00  0.00000000E+00  0.00000000E+00
