MD-kMC export data                      
   1.00000000000000     
     4.2692966439026900    0.0000000000000000    0.0000000000000000
     0.0000000000000000    2.4798831202508098    0.0000000000000000
     0.0000000000000000    0.0000000000000000   19.9141209393466987
   C 
     4
Direct
  0.0001329292037062 -0.0000000000000000  0.0000000000000000
  0.1665337374629581  0.5000000000000000 -0.0000000000000000
  0.5001329292037133  0.5000000000000000  0.0000000000000000
  0.6665337374629581 -0.0000000000000000 -0.0000000000000000
 
  0.00000000E+00  0.00000000E+00  0.00000000E+00
  0.00000000E+00  0.00000000E+00  0.00000000E+00
  0.00000000E+00  0.00000000E+00  0.00000000E+00
  0.00000000E+00  0.00000000E+00  0.00000000E+00
