MD-kMC export data                      
   1.00000000000000     
     4.2517184143148201    0.0000000000000000    0.0000000000000000
     0.0000000000000000    2.5418154284128902    0.0000000000000000
     0.0000000000000000    0.0000000000000000   19.5092322670342000
   C 
     4
Direct
  0.0007509832321824 -0.0000000000000000 -0.0000000000000000
  0.1659156834344820  0.5000000000000000  0.0000000000000000
  0.5007509832321821  0.5000000000000000  0.0000000000000000
  0.6659156834344822 -0.0000000000000000  0.0000000000000000
 
  0.00000000E+00  0.00000000E+00  0.00000000E+00
  0.00000000E+00  0.00000000E+00  0.00000000E+00
  0.00000000E+00  0.00000000E+00  0.00000000E+00
  0.00000000E+00  0.00000000E+00  0.00000000E+00
