MD-kMC export data                      
   1.00000000000000     
     4.2736822746868901    0.0000000000000000    0.0000000000000000
     0.0000000000000000    2.4674226359393199    0.0000000000000000
     0.0000000000000000    0.0000000000000000   19.9941482809067992
   C 
     4
Direct
  1.0000008661367774 -0.0000000000000000 -0.0000000000000000
  0.1666658005298866  0.5000000000000000  0.0000000000000000
  0.5000008661367776  0.5000000000000000 -0.0000000000000000
  0.6666658005298867 -0.0000000000000000  0.0000000000000000
 
  0.00000000E+00  0.00000000E+00  0.00000000E+00
  0.00000000E+00  0.00000000E+00  0.00000000E+00
  0.00000000E+00  0.00000000E+00  0.00000000E+00
  0.00000000E+00  0.00000000E+00  0.00000000E+00
