MD-kMC export data                      
   1.00000000000000     
     4.2735954305129500    0.0000000000000000    0.0000000000000000
     0.0000000000000000    2.4676693782029102    0.0000000000000000
     0.0000000000000000    0.0000000000000000   19.9925553285252988
   C 
     4
Direct
  0.0000034853421917 -0.0000000000000000  0.0000000000000000
  0.1666631813244726  0.5000000000000000 -0.0000000000000000
  0.5000034853421987  0.5000000000000000  0.0000000000000000
  0.6666631813244727  0.0000000000000000 -0.0000000000000000
 
  0.00000000E+00  0.00000000E+00  0.00000000E+00
  0.00000000E+00  0.00000000E+00  0.00000000E+00
  0.00000000E+00  0.00000000E+00  0.00000000E+00
  0.00000000E+00  0.00000000E+00  0.00000000E+00
