MD-kMC export data                      
   1.00000000000000     
     4.2734685905731604    0.0000000000000000    0.0000000000000000
     0.0000000000000000    2.4674477061870101    0.0000000000000000
     0.0000000000000000    0.0000000000000000   19.9949448796713014
   C 
     4
Direct
  1.0000021754498394 -0.0000000000000000 -0.0000000000000000
  0.1666644912168249  0.5000000000000000  0.0000000000000000
  0.5000021754498395  0.5000000000000000 -0.0000000000000000
  0.6666644912168248 -0.0000000000000000  0.0000000000000000
 
  0.00000000E+00  0.00000000E+00  0.00000000E+00
  0.00000000E+00  0.00000000E+00  0.00000000E+00
  0.00000000E+00  0.00000000E+00  0.00000000E+00
  0.00000000E+00  0.00000000E+00  0.00000000E+00
