MD-kMC export data                      
   1.00000000000000     
     4.3172738338886996    0.0000000000000000    0.0000000000000000
     0.0000000000000000    2.4627155166316101    0.0000000000000000
     0.0000000000000000    0.0000000000000000   19.8300971700791990
   C 
     4
Direct
  0.9997492269264846  0.0000000000000000  0.0000000000000000
  0.1669174397401798  0.5000000000000000 -0.0000000000000000
  0.4997492269264845  0.5000000000000000  0.0000000000000000
  0.6669174397401797  0.0000000000000000 -0.0000000000000000
 
  0.00000000E+00  0.00000000E+00  0.00000000E+00
  0.00000000E+00  0.00000000E+00  0.00000000E+00
  0.00000000E+00  0.00000000E+00  0.00000000E+00
  0.00000000E+00  0.00000000E+00  0.00000000E+00
