MD-kMC export data                      
   1.00000000000000     
     4.3172738338886996    0.0000000000000000    0.0000000000000000
     0.0000000000000000    2.4627155166316101    0.0000000000000000
     0.0000000000000000    0.0000000000000000   19.8300971700791990
   C 
     4
Direct
  0.9997298565719253  0.0000000000000000  0.0000000000000000
  0.1669368100947391  0.5000000000000000 -0.0000000000000000
  0.4997298565719252  0.5000000000000000  0.0000000000000000
  0.6669368100947390  0.0000000000000000 -0.0000000000000000
 
  0.00000000E+00  0.00000000E+00  0.00000000E+00
  0.00000000E+00  0.00000000E+00  0.00000000E+00
  0.00000000E+00  0.00000000E+00  0.00000000E+00
  0.00000000E+00  0.00000000E+00  0.00000000E+00
