MD-kMC export data                      
   1.00000000000000     
     4.2657548379587000    0.0000000000000000    0.0000000000000000
     0.0000000000000000    2.4916033777715301    0.0000000000000000
     0.0000000000000000    0.0000000000000000   19.8369035540886998
   C 
     4
Direct
  0.0002576014555774 -0.0000000000000000 -0.0000000000000000
  0.1664090652110869  0.5000000000000000  0.0000000000000000
  0.5002576014555775  0.5000000000000000 -0.0000000000000000
  0.6664090652110868  0.0000000000000000  0.0000000000000000
 
  0.00000000E+00  0.00000000E+00  0.00000000E+00
  0.00000000E+00  0.00000000E+00  0.00000000E+00
  0.00000000E+00  0.00000000E+00  0.00000000E+00
  0.00000000E+00  0.00000000E+00  0.00000000E+00
