MD-kMC export data                      
   1.00000000000000     
     4.2550341427972604    0.0000000000000000    0.0000000000000000
     0.0000000000000000    2.5294783152331899    0.0000000000000000
     0.0000000000000000    0.0000000000000000   19.5891086432645984
   C 
     4
Direct
  0.0006407913014067 -0.0000000000000000  0.0000000000000000
  0.1660258753652575  0.5000000000000000 -0.0000000000000000
  0.5006407913014068  0.5000000000000000  0.0000000000000000
  0.6660258753652575 -0.0000000000000000 -0.0000000000000000
 
  0.00000000E+00  0.00000000E+00  0.00000000E+00
  0.00000000E+00  0.00000000E+00  0.00000000E+00
  0.00000000E+00  0.00000000E+00  0.00000000E+00
  0.00000000E+00  0.00000000E+00  0.00000000E+00
