MD-kMC export data                      
   1.00000000000000     
    4.2550341427972600     0.0000000000000000    0.0000000000000000
     0.0000000000000000    2.5294783152331900    0.0000000000000000
     0.0000000000000000    0.0000000000000000   19.5891086432646000
   C 
     4
Direct
  0.0006372893384483  0.0000000000000000  0.0000000000000000
  0.1660293773282160  0.5000000000000000 -0.0000000000000000
  0.5006372893384482  0.5000000000000000  0.0000000000000000
  0.6660293773282161 -0.0000000000000000 -0.0000000000000000
 
  0.00000000E+00  0.00000000E+00  0.00000000E+00
  0.00000000E+00  0.00000000E+00  0.00000000E+00
  0.00000000E+00  0.00000000E+00  0.00000000E+00
  0.00000000E+00  0.00000000E+00  0.00000000E+00
