MD-kMC export data                      
   1.00000000000000     
     4.2655121613241596    0.0000000000000000    0.0000000000000000
     0.0000000000000000    2.4923436045623100    0.0000000000000000
     0.0000000000000000    0.0000000000000000   19.8321402282653985
   C 
     4
Direct
  0.0002656816191230 -0.0000000000000000  0.0000000000000000
  0.1664009850475413  0.5000000000000000 -0.0000000000000000
  0.5002656816191231  0.5000000000000000  0.0000000000000000
  0.6664009850475412  0.0000000000000000 -0.0000000000000000
 
  0.00000000E+00  0.00000000E+00  0.00000000E+00
  0.00000000E+00  0.00000000E+00  0.00000000E+00
  0.00000000E+00  0.00000000E+00  0.00000000E+00
  0.00000000E+00  0.00000000E+00  0.00000000E+00
