MD-kMC export data                      
   1.00000000000000     
     4.2655121613241596    0.0000000000000000    0.0000000000000000
     0.0000000000000000    2.4923436045623100    0.0000000000000000
     0.0000000000000000    0.0000000000000000   19.8321402282653985
   C 
     4
Direct
  0.0002656768364974 -0.0000000000000000 -0.0000000000000000
  0.1664009898301669  0.5000000000000000  0.0000000000000000
  0.5002656768364976  0.5000000000000000 -0.0000000000000000
  0.6664009898301667 -0.0000000000000000  0.0000000000000000
 
  0.00000000E+00  0.00000000E+00  0.00000000E+00
  0.00000000E+00  0.00000000E+00  0.00000000E+00
  0.00000000E+00  0.00000000E+00  0.00000000E+00
  0.00000000E+00  0.00000000E+00  0.00000000E+00
