MD-kMC export data                      
   1.00000000000000     
     4.2621327701899201    0.0000000000000000    0.0000000000000000
     0.0000000000000000    2.5040638620830200    0.0000000000000000
     0.0000000000000000    0.0000000000000000   19.7549670557899013
   C 
     4
Direct
  0.0003899258557771 -0.0000000000000000  0.0000000000000000
  0.1662767408108872  0.5000000000000000 -0.0000000000000000
  0.5003899258557770  0.5000000000000000  0.0000000000000000
  0.6662767408108873 -0.0000000000000000 -0.0000000000000000
 
  0.00000000E+00  0.00000000E+00  0.00000000E+00
  0.00000000E+00  0.00000000E+00  0.00000000E+00
  0.00000000E+00  0.00000000E+00  0.00000000E+00
  0.00000000E+00  0.00000000E+00  0.00000000E+00
