MD-kMC export data                      
   1.00000000000000     
     4.3805243315540601    0.0000000000000000    0.0000000000000000
     0.0000000000000000    2.4571365678257502    0.0000000000000000
     0.0000000000000000    0.0000000000000000   19.5881442038637985
   C 
     4
Direct
  0.9994587219077115  0.0000000000000000  0.0000000000000000
  0.1672079447589528  0.5000000000000000 -0.0000000000000000
  0.4994587219077115  0.5000000000000000  0.0000000000000000
  0.6672079447589528  0.0000000000000000 -0.0000000000000000
 
  0.00000000E+00  0.00000000E+00  0.00000000E+00
  0.00000000E+00  0.00000000E+00  0.00000000E+00
  0.00000000E+00  0.00000000E+00  0.00000000E+00
  0.00000000E+00  0.00000000E+00  0.00000000E+00
