MD-kMC export data                      
   1.00000000000000     
     4.2517548386272104    0.0000000000000000    0.0000000000000000
     0.0000000000000000    2.5416920572810899    0.0000000000000000
     0.0000000000000000    0.0000000000000000   19.5100120836637991
   C 
     4
Direct
  0.0007498881002120 -0.0000000000000000 -0.0000000000000000
  0.1659167785664523  0.5000000000000000  0.0000000000000000
  0.5007498881002119  0.5000000000000000 -0.0000000000000000
  0.6659167785664524  0.0000000000000000  0.0000000000000000
 
  0.00000000E+00  0.00000000E+00  0.00000000E+00
  0.00000000E+00  0.00000000E+00  0.00000000E+00
  0.00000000E+00  0.00000000E+00  0.00000000E+00
  0.00000000E+00  0.00000000E+00  0.00000000E+00
