MD-kMC export data                      
   1.00000000000000     
     4.2517548386272100   0.0000000000000000    0.0000000000000000
     0.0000000000000000    2.5416920572810900    0.0000000000000000
     0.0000000000000000    0.0000000000000000   19.51001208366380000
    C 
     4
Direct
  0.0007477471354617 -0.0000000000000000 -0.0000000000000000
  0.1659189195312026  0.5000000000000000  0.0000000000000000
  0.5007477471354618  0.5000000000000000 -0.0000000000000000
  0.6659189195312025  0.0000000000000000  0.0000000000000000
 
  0.00000000E+00  0.00000000E+00  0.00000000E+00
  0.00000000E+00  0.00000000E+00  0.00000000E+00
  0.00000000E+00  0.00000000E+00  0.00000000E+00
  0.00000000E+00  0.00000000E+00  0.00000000E+00
