MD-kMC export data                      
   1.00000000000000     
     4.3600106566355699    0.0000000000000000    0.0000000000000000
     0.0000000000000000    2.4588591303160601    0.0000000000000000
     0.0000000000000000    0.0000000000000000   19.6665185271721015
   C 
     4
Direct
  0.9995391884951812  0.0000000000000000 -0.0000000000000000
  0.1671274781714831  0.5000000000000000  0.0000000000000000
  0.4995391884951812  0.5000000000000000 -0.0000000000000000
  0.6671274781714831 -0.0000000000000000  0.0000000000000000
 
  0.00000000E+00  0.00000000E+00  0.00000000E+00
  0.00000000E+00  0.00000000E+00  0.00000000E+00
  0.00000000E+00  0.00000000E+00  0.00000000E+00
  0.00000000E+00  0.00000000E+00  0.00000000E+00
