MD-kMC export data                      
   1.00000000000000     
     4.3153506768650898    0.0000000000000000    0.0000000000000000
     0.0000000000000000    2.4629231836598899    0.0000000000000000
     0.0000000000000000    0.0000000000000000   19.8372617839993985
   C 
     4
Direct
  0.9997833028981692 -0.0000000000000000  0.0000000000000000
  0.1668833637684951  0.5000000000000000 -0.0000000000000000
  0.4997833028981692  0.5000000000000000  0.0000000000000000
  0.6668833637684951  0.0000000000000000 -0.0000000000000000
 
  0.00000000E+00  0.00000000E+00  0.00000000E+00
  0.00000000E+00  0.00000000E+00  0.00000000E+00
  0.00000000E+00  0.00000000E+00  0.00000000E+00
  0.00000000E+00  0.00000000E+00  0.00000000E+00
