MD-kMC export data                      
   1.00000000000000     
     4.2948370019465898    0.0000000000000000    0.0000000000000000
     0.0000000000000000    2.4649406814177701    0.0000000000000000
     0.0000000000000000    0.0000000000000000   19.9156977316750989
   C 
     4
Direct
  0.9998751419874156  0.0000000000000000 -0.0000000000000000
  0.1667915246792488  0.5000000000000000  0.0000000000000000
  0.4998751419874156  0.5000000000000000 -0.0000000000000000
  0.6667915246792487 -0.0000000000000000  0.0000000000000000
 
  0.00000000E+00  0.00000000E+00  0.00000000E+00
  0.00000000E+00  0.00000000E+00  0.00000000E+00
  0.00000000E+00  0.00000000E+00  0.00000000E+00
  0.00000000E+00  0.00000000E+00  0.00000000E+00
