MD-kMC export data                      
   1.00000000000000     
     4.3602243407493004    0.0000000000000000    0.0000000000000000
     0.0000000000000000    2.4588379335199599    0.0000000000000000
     0.0000000000000000    0.0000000000000000   19.6657242483570016
   C 
     4
Direct
  0.9995382497297483 -0.0000000000000000 -0.0000000000000000
  0.1671284169369160  0.5000000000000000  0.0000000000000000
  0.4995382497297483  0.5000000000000000 -0.0000000000000000
  0.6671284169369160  0.0000000000000000  0.0000000000000000
 
  0.00000000E+00  0.00000000E+00  0.00000000E+00
  0.00000000E+00  0.00000000E+00  0.00000000E+00
  0.00000000E+00  0.00000000E+00  0.00000000E+00
  0.00000000E+00  0.00000000E+00  0.00000000E+00
