MD-kMC export data                      
   1.00000000000000     
     4.2738559630347801    0.0000000000000000    0.0000000000000000
     0.0000000000000000    2.4669291514121299    0.0000000000000000
     0.0000000000000000    0.0000000000000000   19.9973351911784007
   C 
     4
Direct
 -0.0000043924137073  0.0000000000000000 -0.0000000000000000
  0.1666710590803716  0.5000000000000000  0.0000000000000000
  0.4999956075862999  0.5000000000000000 -0.0000000000000000
  0.6666710590803717  0.0000000000000000  0.0000000000000000
 
  0.00000000E+00  0.00000000E+00  0.00000000E+00
  0.00000000E+00  0.00000000E+00  0.00000000E+00
  0.00000000E+00  0.00000000E+00  0.00000000E+00
  0.00000000E+00  0.00000000E+00  0.00000000E+00
