MD-kMC export data                      
   1.00000000000000     
     4.2691229555548000    0.0000000000000000    0.0000000000000000
     0.0000000000000000    2.4803766047779998    0.0000000000000000
     0.0000000000000000    0.0000000000000000   19.9109689563094001
   C 
     4
Direct
  0.0001382361436642  0.0000000000000000  0.0000000000000000
  0.1665284305230001  0.5000000000000000 -0.0000000000000000
  0.5001382361436714  0.5000000000000000  0.0000000000000000
  0.6665284305230000  0.0000000000000000 -0.0000000000000000
 
  0.00000000E+00  0.00000000E+00  0.00000000E+00
  0.00000000E+00  0.00000000E+00  0.00000000E+00
  0.00000000E+00  0.00000000E+00  0.00000000E+00
  0.00000000E+00  0.00000000E+00  0.00000000E+00
