MD-kMC export data                      
   1.00000000000000     
     4.2655526074299202    0.0000000000000000    0.0000000000000000
     0.0000000000000000    2.4922202334305101    0.0000000000000000
     0.0000000000000000    0.0000000000000000   19.8329339104901017
   C 
     4
Direct
  0.0002643324201630  0.0000000000000000 -0.0000000000000000
  0.1664023342465013  0.5000000000000000  0.0000000000000000
  0.5002643324201629  0.5000000000000000 -0.0000000000000000
  0.6664023342465014  0.0000000000000000  0.0000000000000000
 
  0.00000000E+00  0.00000000E+00  0.00000000E+00
  0.00000000E+00  0.00000000E+00  0.00000000E+00
  0.00000000E+00  0.00000000E+00  0.00000000E+00
  0.00000000E+00  0.00000000E+00  0.00000000E+00
