MD-kMC export data                      
   1.00000000000000     
     4.3813790680090001    0.0000000000000000    0.0000000000000000
     0.0000000000000000    2.4570542792808401    0.0000000000000000
     0.0000000000000000    0.0000000000000000   19.5849787658685983
   C 
     4
Direct
  0.9994555556098189 -0.0000000000000000 -0.0000000000000000
  0.1672111110568455  0.5000000000000000  0.0000000000000000
  0.4994555556098190  0.5000000000000000 -0.0000000000000000
  0.6672111110568454 -0.0000000000000000  0.0000000000000000
 
  0.00000000E+00  0.00000000E+00  0.00000000E+00
  0.00000000E+00  0.00000000E+00  0.00000000E+00
  0.00000000E+00  0.00000000E+00  0.00000000E+00
  0.00000000E+00  0.00000000E+00  0.00000000E+00
