MD-kMC export data                      
   1.00000000000000     
     4.3155643609788203    0.0000000000000000    0.0000000000000000
     0.0000000000000000    2.4629001095456302    0.0000000000000000
     0.0000000000000000    0.0000000000000000   19.8364653865194001
   C 
     4
Direct
  0.9997588016068781  0.0000000000000000 -0.0000000000000000
  0.1669078650597862  0.5000000000000000  0.0000000000000000
  0.4997588016068780  0.5000000000000000 -0.0000000000000000
  0.6669078650597862  0.0000000000000000  0.0000000000000000
 
  0.00000000E+00  0.00000000E+00  0.00000000E+00
  0.00000000E+00  0.00000000E+00  0.00000000E+00
  0.00000000E+00  0.00000000E+00  0.00000000E+00
  0.00000000E+00  0.00000000E+00  0.00000000E+00
