MD-kMC export data                      
   1.00000000000000     
     4.3164190974337604    0.0000000000000000    0.0000000000000000
     0.0000000000000000    2.4628078130886202    0.0000000000000000
     0.0000000000000000    0.0000000000000000   19.8332806199277982
   C 
     4
Direct
  0.9997540022588846  0.0000000000000000  0.0000000000000000
  0.1669126644077797  0.5000000000000000 -0.0000000000000000
  0.4997540022588847  0.5000000000000000  0.0000000000000000
  0.6669126644077797  0.0000000000000000 -0.0000000000000000
 
  0.00000000E+00  0.00000000E+00  0.00000000E+00
  0.00000000E+00  0.00000000E+00  0.00000000E+00
  0.00000000E+00  0.00000000E+00  0.00000000E+00
  0.00000000E+00  0.00000000E+00  0.00000000E+00
