MD-kMC export data                      
   1.00000000000000     
     4.3164190974337600    0.0000000000000000    0.0000000000000000
     0.0000000000000000    2.4628078130886200    0.0000000000000000
     0.0000000000000000    0.0000000000000000  19.8332806199278000
   C 
     4
Direct
  0.9997541186099431 -0.0000000000000000  0.0000000000000000
  0.1669125480567212  0.5000000000000000 -0.0000000000000000
  0.4997541186099431  0.5000000000000000  0.0000000000000000
  0.6669125480567212  0.0000000000000000 -0.0000000000000000
 
  0.00000000E+00  0.00000000E+00  0.00000000E+00
  0.00000000E+00  0.00000000E+00  0.00000000E+00
  0.00000000E+00  0.00000000E+00  0.00000000E+00
  0.00000000E+00  0.00000000E+00  0.00000000E+00
