MD-kMC export data                      
   1.00000000000000     
     4.3593696042943604    0.0000000000000000    0.0000000000000000
     0.0000000000000000    2.4589227207043498    0.0000000000000000
     0.0000000000000000    0.0000000000000000   19.6689018483574003
   C 
     4
Direct
  0.9995420146839223  0.0000000000000000  0.0000000000000000
  0.1671246519827420  0.5000000000000000 -0.0000000000000000
  0.4995420146839223  0.5000000000000000  0.0000000000000000
  0.6671246519827420  0.0000000000000000 -0.0000000000000000
 
  0.00000000E+00  0.00000000E+00  0.00000000E+00
  0.00000000E+00  0.00000000E+00  0.00000000E+00
  0.00000000E+00  0.00000000E+00  0.00000000E+00
  0.00000000E+00  0.00000000E+00  0.00000000E+00
