MD-kMC export data                      
   1.00000000000000     
     4.2516455656900396    0.0000000000000000    0.0000000000000000
     0.0000000000000000    2.5420621706764801    0.0000000000000000
     0.0000000000000000    0.0000000000000000   19.5076728694411017
   C 
     4
Direct
  0.0007531630859106  0.0000000000000000 -0.0000000000000000
  0.1659135035807538  0.5000000000000000  0.0000000000000000
  0.5007531630859108  0.5000000000000000 -0.0000000000000000
  0.6659135035807535  0.0000000000000000  0.0000000000000000
 
  0.00000000E+00  0.00000000E+00  0.00000000E+00
  0.00000000E+00  0.00000000E+00  0.00000000E+00
  0.00000000E+00  0.00000000E+00  0.00000000E+00
  0.00000000E+00  0.00000000E+00  0.00000000E+00
