MD-kMC export data                      
   1.00000000000000     
     4.2550712166181199    0.0000000000000000    0.0000000000000000
     0.0000000000000000    2.5293549441013998    0.0000000000000000
     0.0000000000000000    0.0000000000000000   19.5898934309241994
   C 
     4
Direct
  0.0006396202357268  0.0000000000000000  0.0000000000000000
  0.1660270464309375  0.5000000000000000 -0.0000000000000000
  0.5006396202357268  0.5000000000000000  0.0000000000000000
  0.6660270464309375  0.0000000000000000 -0.0000000000000000
 
  0.00000000E+00  0.00000000E+00  0.00000000E+00
  0.00000000E+00  0.00000000E+00  0.00000000E+00
  0.00000000E+00  0.00000000E+00  0.00000000E+00
  0.00000000E+00  0.00000000E+00  0.00000000E+00
