MD-kMC export data                      
   1.00000000000000     
     4.2584665521040597    0.0000000000000000    0.0000000000000000
     0.0000000000000000    2.5170178309217000    0.0000000000000000
     0.0000000000000000    0.0000000000000000   19.6702170504102014
   C 
     4
Direct
  0.0005216987424417 -0.0000000000000000  0.0000000000000000
  0.1661449679242226  0.5000000000000000 -0.0000000000000000
  0.5005216987424417  0.5000000000000000  0.0000000000000000
  0.6661449679242226  0.0000000000000000 -0.0000000000000000
 
  0.00000000E+00  0.00000000E+00  0.00000000E+00
  0.00000000E+00  0.00000000E+00  0.00000000E+00
  0.00000000E+00  0.00000000E+00  0.00000000E+00
  0.00000000E+00  0.00000000E+00  0.00000000E+00
