MD-kMC export data                      
   1.00000000000000     
     4.2584665521040597    0.0000000000000000    0.0000000000000000
     0.0000000000000000    2.5170178309217000    0.0000000000000000
     0.0000000000000000    0.0000000000000000   19.6702170504102014
   C 
     4
Direct
  0.0005317860800714 -0.0000000000000000  0.0000000000000000
  0.1661348805865929  0.5000000000000000  0.0000000000000000
  0.5005317860800713  0.5000000000000000  0.0000000000000000
  0.6661348805865930  0.0000000000000000  0.0000000000000000
 
  0.00000000E+00  0.00000000E+00  0.00000000E+00
  0.00000000E+00  0.00000000E+00  0.00000000E+00
  0.00000000E+00  0.00000000E+00  0.00000000E+00
  0.00000000E+00  0.00000000E+00  0.00000000E+00
