MD-kMC export data                      
   1.00000000000000     
     4.2585044021602299    0.0000000000000000    0.0000000000000000
     0.0000000000000000    2.5168944597899001    0.0000000000000000
     0.0000000000000000    0.0000000000000000   19.6710063898471006
   C 
     4
Direct
  0.0005204536069407  0.0000000000000000 -0.0000000000000000
  0.1661462130597235  0.5000000000000000  0.0000000000000000
  0.5005204536069406  0.5000000000000000 -0.0000000000000000
  0.6661462130597237 -0.0000000000000000  0.0000000000000000
 
  0.00000000E+00  0.00000000E+00  0.00000000E+00
  0.00000000E+00  0.00000000E+00  0.00000000E+00
  0.00000000E+00  0.00000000E+00  0.00000000E+00
  0.00000000E+00  0.00000000E+00  0.00000000E+00
