MD-kMC export data                      
   1.00000000000000     
     4.2585044021602300    0.0000000000000000    0.0000000000000000
     0.0000000000000000    2.5168944597899000    0.0000000000000000
     0.0000000000000000    0.0000000000000000   19.6710063898471000
   C 
     4
Direct
  0.0005191925392440  0.0000000000000000  0.0000000000000000
  0.1661474741274203  0.5000000000000000 -0.0000000000000000
  0.5005191925392439  0.5000000000000000  0.0000000000000000
  0.6661474741274204  0.0000000000000000 -0.0000000000000000
 
  0.00000000E+00  0.00000000E+00  0.00000000E+00
  0.00000000E+00  0.00000000E+00  0.00000000E+00
  0.00000000E+00  0.00000000E+00  0.00000000E+00
  0.00000000E+00  0.00000000E+00  0.00000000E+00
