MD-kMC export data                      
   1.00000000000000     
     4.2738125409478096    0.0000000000000000    0.0000000000000000
     0.0000000000000000    2.4670525225439301    0.0000000000000000
     0.0000000000000000    0.0000000000000000   19.9965383378908008
   C 
     4
Direct
 -0.0000030739060265  0.0000000000000000 -0.0000000000000000
  0.1666697405726908  0.5000000000000000  0.0000000000000000
  0.4999969260939806  0.5000000000000000 -0.0000000000000000
  0.6666697405726906 -0.0000000000000000  0.0000000000000000
 
  0.00000000E+00  0.00000000E+00  0.00000000E+00
  0.00000000E+00  0.00000000E+00  0.00000000E+00
  0.00000000E+00  0.00000000E+00  0.00000000E+00
  0.00000000E+00  0.00000000E+00  0.00000000E+00
