MD-kMC export data                      
   1.00000000000000     
     4.3166327815474901    0.0000000000000000    0.0000000000000000
     0.0000000000000000    2.4627847389743698    0.0000000000000000
     0.0000000000000000    0.0000000000000000   19.8324846340513012
   C 
     4
Direct
  0.9997528091523407  0.0000000000000000  0.0000000000000000
  0.1669138575143236  0.5000000000000000  0.0000000000000000
  0.4997528091523407  0.5000000000000000  0.0000000000000000
  0.6669138575143236  0.0000000000000000  0.0000000000000000
 
  0.00000000E+00  0.00000000E+00  0.00000000E+00
  0.00000000E+00  0.00000000E+00  0.00000000E+00
  0.00000000E+00  0.00000000E+00  0.00000000E+00
  0.00000000E+00  0.00000000E+00  0.00000000E+00
