MD-kMC export data                      
   1.00000000000000     
     4.4008243223588304    0.0000000000000000    0.0000000000000000
     0.0000000000000000    2.4555006947109601    0.0000000000000000
     0.0000000000000000    0.0000000000000000   19.5107781722402009
   C 
     4
Direct
  0.9993930009481602  0.0000000000000000  0.0000000000000000
  0.1672736657185042  0.5000000000000000 -0.0000000000000000
  0.4993930009481601  0.5000000000000000  0.0000000000000000
  0.6672736657185041  0.0000000000000000 -0.0000000000000000
 
  0.00000000E+00  0.00000000E+00  0.00000000E+00
  0.00000000E+00  0.00000000E+00  0.00000000E+00
  0.00000000E+00  0.00000000E+00  0.00000000E+00
  0.00000000E+00  0.00000000E+00  0.00000000E+00
