MD-kMC export data                      
   1.00000000000000     
     4.2622105446309799    0.0000000000000000    0.0000000000000000
     0.0000000000000000    2.5038171198194199    0.0000000000000000
     0.0000000000000000    0.0000000000000000   19.7565533243202012
   C 
     4
Direct
  0.0003872983599272 -0.0000000000000000  0.0000000000000000
  0.1662793683067371  0.5000000000000000 -0.0000000000000000
  0.5003872983599272  0.5000000000000000  0.0000000000000000
  0.6662793683067371  0.0000000000000000 -0.0000000000000000
 
  0.00000000E+00  0.00000000E+00  0.00000000E+00
  0.00000000E+00  0.00000000E+00  0.00000000E+00
  0.00000000E+00  0.00000000E+00  0.00000000E+00
  0.00000000E+00  0.00000000E+00  0.00000000E+00
