MD-kMC export data                      
   1.00000000000000     
     4.3367190882385200    0.0000000000000000    0.0000000000000000
     0.0000000000000000    2.4609396905655401    0.0000000000000000
     0.0000000000000000    0.0000000000000000   19.7554270635673994
   C 
     4
Direct
  0.9996474762064620  0.0000000000000000  0.0000000000000000
  0.1670191904602023  0.5000000000000000 -0.0000000000000000
  0.4996474762064549  0.5000000000000000  0.0000000000000000
  0.6670191904602023  0.0000000000000000 -0.0000000000000000
 
  0.00000000E+00  0.00000000E+00  0.00000000E+00
  0.00000000E+00  0.00000000E+00  0.00000000E+00
  0.00000000E+00  0.00000000E+00  0.00000000E+00
  0.00000000E+00  0.00000000E+00  0.00000000E+00
