MD-kMC export data                      
   1.00000000000000     
     4.3367190882385200    0.0000000000000000    0.0000000000000000
     0.0000000000000000    2.4609396905655400    0.0000000000000000
     0.0000000000000000    0.0000000000000000   19.7554270635674000
   C 
     4
Direct
  0.9996421506211243  0.0000000000000000  0.0000000000000000
  0.1670245160455401  0.5000000000000000 -0.0000000000000000
  0.4996421506211241  0.5000000000000000  0.0000000000000000
  0.6670245160455400  0.0000000000000000 -0.0000000000000000
 
  0.00000000E+00  0.00000000E+00  0.00000000E+00
  0.00000000E+00  0.00000000E+00  0.00000000E+00
  0.00000000E+00  0.00000000E+00  0.00000000E+00
  0.00000000E+00  0.00000000E+00  0.00000000E+00
