MD-kMC export data                      
   1.00000000000000     
     4.3170601497749601    0.0000000000000000    0.0000000000000000
     0.0000000000000000    2.4627385907458601    0.0000000000000000
     0.0000000000000000    0.0000000000000000   19.8308929091390986
   C 
     4
Direct
  0.9997504246638613  0.0000000000000000  0.0000000000000000
  0.1669162420028030  0.5000000000000000 -0.0000000000000000
  0.4997504246638613  0.5000000000000000  0.0000000000000000
  0.6669162420028030  0.0000000000000000 -0.0000000000000000
 
  0.00000000E+00  0.00000000E+00  0.00000000E+00
  0.00000000E+00  0.00000000E+00  0.00000000E+00
  0.00000000E+00  0.00000000E+00  0.00000000E+00
  0.00000000E+00  0.00000000E+00  0.00000000E+00
