MD-kMC export data                      
   1.00000000000000     
     4.2654312691126499    0.0000000000000000    0.0000000000000000
     0.0000000000000000    2.4925903468258999    0.0000000000000000
     0.0000000000000000    0.0000000000000000   19.8305531102143995
   C 
     4
Direct
  0.0002683766054634  0.0000000000000000 -0.0000000000000000
  0.1663982900612008  0.5000000000000000  0.0000000000000000
  0.5002683766054637  0.5000000000000000 -0.0000000000000000
  0.6663982900612005  0.0000000000000000  0.0000000000000000
 
  0.00000000E+00  0.00000000E+00  0.00000000E+00
  0.00000000E+00  0.00000000E+00  0.00000000E+00
  0.00000000E+00  0.00000000E+00  0.00000000E+00
  0.00000000E+00  0.00000000E+00  0.00000000E+00
