MD-kMC export data                      
   1.00000000000000     
     4.2551082904389697    0.0000000000000000    0.0000000000000000
     0.0000000000000000    2.5292315729696000    0.0000000000000000
     0.0000000000000000    0.0000000000000000   19.5906782981191014
   C 
     4
Direct
  0.0006384605721136 -0.0000000000000000 -0.0000000000000000
  0.1660282060945507  0.5000000000000000  0.0000000000000000
  0.5006384605721136  0.5000000000000000 -0.0000000000000000
  0.6660282060945507 -0.0000000000000000  0.0000000000000000
 
  0.00000000E+00  0.00000000E+00  0.00000000E+00
  0.00000000E+00  0.00000000E+00  0.00000000E+00
  0.00000000E+00  0.00000000E+00  0.00000000E+00
  0.00000000E+00  0.00000000E+00  0.00000000E+00
