MD-kMC export data                      
   1.00000000000000     
     4.2619383340872803    0.0000000000000000    0.0000000000000000
     0.0000000000000000    2.5046807177420001    0.0000000000000000
     0.0000000000000000    0.0000000000000000   19.7510028093476997
   C 
     4
Direct
  0.0003964787393699  0.0000000000000000  0.0000000000000000
  0.1662701879272944  0.5000000000000000 -0.0000000000000000
  0.5003964787393700  0.5000000000000000  0.0000000000000000
  0.6662701879272943 -0.0000000000000000 -0.0000000000000000
 
  0.00000000E+00  0.00000000E+00  0.00000000E+00
  0.00000000E+00  0.00000000E+00  0.00000000E+00
  0.00000000E+00  0.00000000E+00  0.00000000E+00
  0.00000000E+00  0.00000000E+00  0.00000000E+00
