MD-kMC export data                      
   1.00000000000000     
     4.2583530019355296    0.0000000000000000    0.0000000000000000
     0.0000000000000000    2.5173879443170901    0.0000000000000000
     0.0000000000000000    0.0000000000000000   19.6678495149479993
   C 
     4
Direct
  0.0005254169699412 -0.0000000000000000  0.0000000000000000
  0.1661412496967231  0.5000000000000000 -0.0000000000000000
  0.5005254169699412  0.5000000000000000  0.0000000000000000
  0.6661412496967231 -0.0000000000000000 -0.0000000000000000
 
  0.00000000E+00  0.00000000E+00  0.00000000E+00
  0.00000000E+00  0.00000000E+00  0.00000000E+00
  0.00000000E+00  0.00000000E+00  0.00000000E+00
  0.00000000E+00  0.00000000E+00  0.00000000E+00
