MD-kMC export data                      
   1.00000000000000     
     4.2583908519916998    0.0000000000000000    0.0000000000000000
     0.0000000000000000    2.5172645731852898    0.0000000000000000
     0.0000000000000000    0.0000000000000000   19.6686386129724013
   C 
     4
Direct
  0.0005241729833783  0.0000000000000000 -0.0000000000000000
  0.1661424936832860  0.5000000000000000  0.0000000000000000
  0.5005241729833783  0.5000000000000000 -0.0000000000000000
  0.6661424936832860  0.0000000000000000  0.0000000000000000
 
  0.00000000E+00  0.00000000E+00  0.00000000E+00
  0.00000000E+00  0.00000000E+00  0.00000000E+00
  0.00000000E+00  0.00000000E+00  0.00000000E+00
  0.00000000E+00  0.00000000E+00  0.00000000E+00
