MD-kMC export data                      
   1.00000000000000     
     4.2518641115643900    0.0000000000000000    0.0000000000000000
     0.0000000000000000    2.5413219438857002    0.0000000000000000
     0.0000000000000000    0.0000000000000000   19.5123520050217003
   C 
     4
Direct
  0.0007466152797934  0.0000000000000000  0.0000000000000000
  0.1659200513868709  0.5000000000000000  0.0000000000000000
  0.5007466152797934  0.5000000000000000  0.0000000000000000
  0.6659200513868709 -0.0000000000000000  0.0000000000000000
 
  0.00000000E+00  0.00000000E+00  0.00000000E+00
  0.00000000E+00  0.00000000E+00  0.00000000E+00
  0.00000000E+00  0.00000000E+00  0.00000000E+00
  0.00000000E+00  0.00000000E+00  0.00000000E+00
