MD-kMC export data                      
   1.00000000000000     
     4.3597969725218304    0.0000000000000000    0.0000000000000000
     0.0000000000000000    2.4588803271121500    0.0000000000000000
     0.0000000000000000    0.0000000000000000   19.6673128867692988
   C 
     4
Direct
  0.9995401290489824  0.0000000000000000  0.0000000000000000
  0.1671265376176814  0.5000000000000000 -0.0000000000000000
  0.4995401290489829  0.5000000000000000  0.0000000000000000
  0.6671265376176819 -0.0000000000000000 -0.0000000000000000
 
  0.00000000E+00  0.00000000E+00  0.00000000E+00
  0.00000000E+00  0.00000000E+00  0.00000000E+00
  0.00000000E+00  0.00000000E+00  0.00000000E+00
  0.00000000E+00  0.00000000E+00  0.00000000E+00
