MD-kMC export data                      
   1.00000000000000     
     4.2745370111418302    0.0000000000000000    0.0000000000000000
     0.0000000000000000    2.4673223549485499    0.0000000000000000
     0.0000000000000000    0.0000000000000000   19.9909627235636016
   C 
     4
Direct
  0.9999956209971864  0.0000000000000000  0.0000000000000000
  0.1666710456694778  0.5000000000000000 -0.0000000000000000
  0.4999956209971864  0.5000000000000000  0.0000000000000000
  0.6666710456694779  0.0000000000000000 -0.0000000000000000
 
  0.00000000E+00  0.00000000E+00  0.00000000E+00
  0.00000000E+00  0.00000000E+00  0.00000000E+00
  0.00000000E+00  0.00000000E+00  0.00000000E+00
  0.00000000E+00  0.00000000E+00  0.00000000E+00
