MD-kMC export data                      
   1.00000000000000     
     4.2745370111418300    0.0000000000000000    0.0000000000000000
     0.0000000000000000    2.4673223549485500    0.0000000000000000
     0.0000000000000000    0.0000000000000000   19.9909627235636000
   C 
     4
Direct
  0.9998739117154738  0.0000000000000000 -0.0000000000000000
  0.1667927549511905  0.5000000000000000  0.0000000000000000
  0.4998739117154738  0.5000000000000000 -0.0000000000000000
  0.6667927549511905 -0.0000000000000000  0.0000000000000000
 
  0.00000000E+00  0.00000000E+00  0.00000000E+00
  0.00000000E+00  0.00000000E+00  0.00000000E+00
  0.00000000E+00  0.00000000E+00  0.00000000E+00
  0.00000000E+00  0.00000000E+00  0.00000000E+00
