MD-kMC export data                      
   1.00000000000000     
     4.2737691188608302    0.0000000000000000    0.0000000000000000
     0.0000000000000000    2.4671758936757300    0.0000000000000000
     0.0000000000000000    0.0000000000000000   19.9957415684245987
   C 
     4
Direct
 -0.0000017620718690  0.0000000000000000  0.0000000000000000
  0.1666684287385332  0.5000000000000000 -0.0000000000000000
  0.4999982379281380  0.5000000000000000  0.0000000000000000
  0.6666684287385335 -0.0000000000000000 -0.0000000000000000
 
  0.00000000E+00  0.00000000E+00  0.00000000E+00
  0.00000000E+00  0.00000000E+00  0.00000000E+00
  0.00000000E+00  0.00000000E+00  0.00000000E+00
  0.00000000E+00  0.00000000E+00  0.00000000E+00
