MD-kMC export data                      
   1.00000000000000     
     4.3807380156678004    0.0000000000000000    0.0000000000000000
     0.0000000000000000    2.4571159956895201    0.0000000000000000
     0.0000000000000000    0.0000000000000000   19.5873527244427983
   C 
     4
Direct
  0.9994579290600515 -0.0000000000000000  0.0000000000000000
  0.1672087376066128  0.5000000000000000 -0.0000000000000000
  0.4994579290600515  0.5000000000000000  0.0000000000000000
  0.6672087376066128  0.0000000000000000 -0.0000000000000000
 
  0.00000000E+00  0.00000000E+00  0.00000000E+00
  0.00000000E+00  0.00000000E+00  0.00000000E+00
  0.00000000E+00  0.00000000E+00  0.00000000E+00
  0.00000000E+00  0.00000000E+00  0.00000000E+00
