MD-kMC export data                      
   1.00000000000000     
     4.2585801022725800    0.0000000000000000    0.0000000000000000
     0.0000000000000000    2.5166477175263098    0.0000000000000000
     0.0000000000000000    0.0000000000000000   19.6725853102155988
   C 
     4
Direct
  0.0005179621786731  0.0000000000000000 -0.0000000000000000
  0.1661487044879912  0.5000000000000000  0.0000000000000000
  0.5005179621786731  0.5000000000000000 -0.0000000000000000
  0.6661487044879912  0.0000000000000000  0.0000000000000000
 
  0.00000000E+00  0.00000000E+00  0.00000000E+00
  0.00000000E+00  0.00000000E+00  0.00000000E+00
  0.00000000E+00  0.00000000E+00  0.00000000E+00
  0.00000000E+00  0.00000000E+00  0.00000000E+00
