MD-kMC export data                      
   1.00000000000000     
     4.3803106474403304    0.0000000000000000    0.0000000000000000
     0.0000000000000000    2.4571571399619700    0.0000000000000000
     0.0000000000000000    0.0000000000000000   19.5889357632524010
   C 
     4
Direct
  0.9994595193777231 -0.0000000000000000  0.0000000000000000
  0.1672071472889410  0.5000000000000000 -0.0000000000000000
  0.4994595193777233  0.5000000000000000  0.0000000000000000
  0.6672071472889411 -0.0000000000000000 -0.0000000000000000
 
  0.00000000E+00  0.00000000E+00  0.00000000E+00
  0.00000000E+00  0.00000000E+00  0.00000000E+00
  0.00000000E+00  0.00000000E+00  0.00000000E+00
  0.00000000E+00  0.00000000E+00  0.00000000E+00
