MD-kMC export data                      
   1.00000000000000     
     4.2735520084259697    0.0000000000000000    0.0000000000000000
     0.0000000000000000    2.4677927493347100    0.0000000000000000
     0.0000000000000000    0.0000000000000000   19.9917589779796003
   C 
     4
Direct
  0.0000047973207644  0.0000000000000000  0.0000000000000000
  0.1666618693458999  0.5000000000000000 -0.0000000000000000
  0.5000047973207716  0.5000000000000000  0.0000000000000000
  0.6666618693458998  0.0000000000000000 -0.0000000000000000
 
  0.00000000E+00  0.00000000E+00  0.00000000E+00
  0.00000000E+00  0.00000000E+00  0.00000000E+00
  0.00000000E+00  0.00000000E+00  0.00000000E+00
  0.00000000E+00  0.00000000E+00  0.00000000E+00
