MD-kMC export data                      
   1.00000000000000     
     4.3168464656612304    0.0000000000000000    0.0000000000000000
     0.0000000000000000    2.4627616648601101    0.0000000000000000
     0.0000000000000000    0.0000000000000000   19.8316887304590992
   C 
     4
Direct
  0.9997516151084718  0.0000000000000000 -0.0000000000000000
  0.1669150515581926  0.5000000000000000  0.0000000000000000
  0.4997516151084718  0.5000000000000000 -0.0000000000000000
  0.6669150515581925  0.0000000000000000  0.0000000000000000
 
  0.00000000E+00  0.00000000E+00  0.00000000E+00
  0.00000000E+00  0.00000000E+00  0.00000000E+00
  0.00000000E+00  0.00000000E+00  0.00000000E+00
  0.00000000E+00  0.00000000E+00  0.00000000E+00
