MD-kMC export data                      
   1.00000000000000     
     4.3794559109853903    0.0000000000000000    0.0000000000000000
     0.0000000000000000    2.4572394285068802    0.0000000000000000
     0.0000000000000000    0.0000000000000000   19.5921028007150007
   C 
     4
Direct
  0.9994627183837542  0.0000000000000000  0.0000000000000000
  0.1672039482829099  0.5000000000000000 -0.0000000000000000
  0.4994627183837543  0.5000000000000000  0.0000000000000000
  0.6672039482829101  0.0000000000000000 -0.0000000000000000
 
  0.00000000E+00  0.00000000E+00  0.00000000E+00
  0.00000000E+00  0.00000000E+00  0.00000000E+00
  0.00000000E+00  0.00000000E+00  0.00000000E+00
  0.00000000E+00  0.00000000E+00  0.00000000E+00
