MD-kMC export data                      
   1.00000000000000     
     4.3794559109853900    0.0000000000000000    0.0000000000000000
     0.0000000000000000    2.4572394285068800    0.0000000000000000
     0.0000000000000000    0.0000000000000000   19.5921028007150000
   C 
     4
Direct
  0.9994586913759631 -0.0000000000000000  0.0000000000000000
  0.1672079752907012  0.5000000000000000 -0.0000000000000000
  0.4994586913759632  0.5000000000000000  0.0000000000000000
  0.6672079752907012 -0.0000000000000000 -0.0000000000000000
 
  0.00000000E+00  0.00000000E+00  0.00000000E+00
  0.00000000E+00  0.00000000E+00  0.00000000E+00
  0.00000000E+00  0.00000000E+00  0.00000000E+00
  0.00000000E+00  0.00000000E+00  0.00000000E+00
