MD-kMC export data                      
   1.00000000000000     
     4.4016790588137598    0.0000000000000000    0.0000000000000000
     0.0000000000000000    2.4554205472069000    0.0000000000000000
     0.0000000000000000    0.0000000000000000   19.5076262163203005
   C 
     4
Direct
  0.9993904209561892 -0.0000000000000000 -0.0000000000000000
  0.1672762457104751  0.5000000000000000  0.0000000000000000
  0.4993904209561892  0.5000000000000000 -0.0000000000000000
  0.6672762457104751  0.0000000000000000  0.0000000000000000
 
  0.00000000E+00  0.00000000E+00  0.00000000E+00
  0.00000000E+00  0.00000000E+00  0.00000000E+00
  0.00000000E+00  0.00000000E+00  0.00000000E+00
  0.00000000E+00  0.00000000E+00  0.00000000E+00
