MD-kMC export data                      
   1.00000000000000     
     4.3375738246934601    0.0000000000000000    0.0000000000000000
     0.0000000000000000    2.4608517862214900    0.0000000000000000
     0.0000000000000000    0.0000000000000000   19.7522397234300016
   C 
     4
Direct
  0.9996431130292023  0.0000000000000000 -0.0000000000000000
  0.1670235536374621  0.5000000000000000  0.0000000000000000
  0.4996431130291952  0.5000000000000000 -0.0000000000000000
  0.6670235536374620  0.0000000000000000  0.0000000000000000
 
  0.00000000E+00  0.00000000E+00  0.00000000E+00
  0.00000000E+00  0.00000000E+00  0.00000000E+00
  0.00000000E+00  0.00000000E+00  0.00000000E+00
  0.00000000E+00  0.00000000E+00  0.00000000E+00
