MD-kMC export data                      
   1.00000000000000     
     4.2519369601891697    0.0000000000000000    0.0000000000000000
     0.0000000000000000    2.5410752016221099    0.0000000000000000
     0.0000000000000000    0.0000000000000000   19.5139123455978982
   C 
     4
Direct
  0.0007444330384946  0.0000000000000000  0.0000000000000000
  0.1659222336281697  0.5000000000000000 -0.0000000000000000
  0.5007444330384946  0.5000000000000000  0.0000000000000000
  0.6659222336281697 -0.0000000000000000 -0.0000000000000000
 
  0.00000000E+00  0.00000000E+00  0.00000000E+00
  0.00000000E+00  0.00000000E+00  0.00000000E+00
  0.00000000E+00  0.00000000E+00  0.00000000E+00
  0.00000000E+00  0.00000000E+00  0.00000000E+00
