MD-kMC export data                      
   1.00000000000000     
     4.3162054133200201    0.0000000000000000    0.0000000000000000
     0.0000000000000000    2.4628308872028701    0.0000000000000000
     0.0000000000000000    0.0000000000000000   19.8340766881007013
   C 
     4
Direct
  0.9997552060212666 -0.0000000000000000  0.0000000000000000
  0.1669114606453977  0.5000000000000000 -0.0000000000000000
  0.4997552060212666  0.5000000000000000  0.0000000000000000
  0.6669114606453977  0.0000000000000000 -0.0000000000000000
 
  0.00000000E+00  0.00000000E+00  0.00000000E+00
  0.00000000E+00  0.00000000E+00  0.00000000E+00
  0.00000000E+00  0.00000000E+00  0.00000000E+00
  0.00000000E+00  0.00000000E+00  0.00000000E+00
