MD-kMC export data                      
   1.00000000000000     
     4.2618605596462196    0.0000000000000000    0.0000000000000000
     0.0000000000000000    2.5049274600056002    0.0000000000000000
     0.0000000000000000    0.0000000000000000   19.7494176804733996
   C 
     4
Direct
  0.0003990997760430  0.0000000000000000 -0.0000000000000000
  0.1662675668906213  0.5000000000000000  0.0000000000000000
  0.5003990997760430  0.5000000000000000 -0.0000000000000000
  0.6662675668906213 -0.0000000000000000  0.0000000000000000
 
  0.00000000E+00  0.00000000E+00  0.00000000E+00
  0.00000000E+00  0.00000000E+00  0.00000000E+00
  0.00000000E+00  0.00000000E+00  0.00000000E+00
  0.00000000E+00  0.00000000E+00  0.00000000E+00
