MD-kMC export data                      
   1.00000000000000     
     4.2585422522164098    0.0000000000000000    0.0000000000000000
     0.0000000000000000    2.5167710886581101    0.0000000000000000
     0.0000000000000000    0.0000000000000000   19.6717958097782990
   C 
     4
Direct
  0.0005192066434306 -0.0000000000000000  0.0000000000000000
  0.1661474600232337  0.5000000000000000 -0.0000000000000000
  0.5005192066434305  0.5000000000000000  0.0000000000000000
  0.6661474600232338  0.0000000000000000 -0.0000000000000000
 
  0.00000000E+00  0.00000000E+00  0.00000000E+00
  0.00000000E+00  0.00000000E+00  0.00000000E+00
  0.00000000E+00  0.00000000E+00  0.00000000E+00
  0.00000000E+00  0.00000000E+00  0.00000000E+00
