MD-kMC export data                      
   1.00000000000000     
     4.3371464564659901    0.0000000000000000    0.0000000000000000
     0.0000000000000000    2.4608957383935199    0.0000000000000000
     0.0000000000000000    0.0000000000000000   19.7538332301623996
   C 
     4
Direct
  0.9996452934565566  0.0000000000000000 -0.0000000000000000
  0.1670213732101079  0.5000000000000000  0.0000000000000000
  0.4996452934565492  0.5000000000000000 -0.0000000000000000
  0.6670213732101077 -0.0000000000000000  0.0000000000000000
 
  0.00000000E+00  0.00000000E+00  0.00000000E+00
  0.00000000E+00  0.00000000E+00  0.00000000E+00
  0.00000000E+00  0.00000000E+00  0.00000000E+00
  0.00000000E+00  0.00000000E+00  0.00000000E+00
