MD-kMC export data                      
   1.00000000000000     
     4.4018927429275001    0.0000000000000000    0.0000000000000000
     0.0000000000000000    2.4554005103308900    0.0000000000000000
     0.0000000000000000    0.0000000000000000   19.5068384250944007
   C 
     4
Direct
  0.9993897798258922 -0.0000000000000000 -0.0000000000000000
  0.1672768868407722  0.5000000000000000  0.0000000000000000
  0.4993897798258922  0.5000000000000000 -0.0000000000000000
  0.6672768868407721 -0.0000000000000000  0.0000000000000000
 
  0.00000000E+00  0.00000000E+00  0.00000000E+00
  0.00000000E+00  0.00000000E+00  0.00000000E+00
  0.00000000E+00  0.00000000E+00  0.00000000E+00
  0.00000000E+00  0.00000000E+00  0.00000000E+00
