MD-kMC export data                      
   1.00000000000000     
     4.3159917292062904    0.0000000000000000    0.0000000000000000
     0.0000000000000000    2.4628539613171299    0.0000000000000000
     0.0000000000000000    0.0000000000000000   19.8348728385822000
   C 
     4
Direct
  0.9997563981883357  0.0000000000000000 -0.0000000000000000
  0.1669102684783285  0.5000000000000000  0.0000000000000000
  0.4997563981883358  0.5000000000000000 -0.0000000000000000
  0.6669102684783286 -0.0000000000000000  0.0000000000000000
 
  0.00000000E+00  0.00000000E+00  0.00000000E+00
  0.00000000E+00  0.00000000E+00  0.00000000E+00
  0.00000000E+00  0.00000000E+00  0.00000000E+00
  0.00000000E+00  0.00000000E+00  0.00000000E+00
