MD-kMC export data                      
   1.00000000000000     
     4.2961191066289999    0.0000000000000000    0.0000000000000000
     0.0000000000000000    2.4647902599316098    0.0000000000000000
     0.0000000000000000    0.0000000000000000   19.9109692803925995
   C 
     4
Direct
  0.9998676419517614 -0.0000000000000000 -0.0000000000000000
  0.1667990247149030  0.5000000000000000  0.0000000000000000
  0.4998676419517613  0.5000000000000000 -0.0000000000000000
  0.6667990247149029 -0.0000000000000000  0.0000000000000000
 
  0.00000000E+00  0.00000000E+00  0.00000000E+00
  0.00000000E+00  0.00000000E+00  0.00000000E+00
  0.00000000E+00  0.00000000E+00  0.00000000E+00
  0.00000000E+00  0.00000000E+00  0.00000000E+00
