MD-kMC export data                      
   1.00000000000000     
     4.2657952840644597    0.0000000000000000    0.0000000000000000
     0.0000000000000000    2.4914800066397298    0.0000000000000000
     0.0000000000000000    0.0000000000000000   19.8376977293882995
   C 
     4
Direct
  0.0002562513357321  0.0000000000000000  0.0000000000000000
  0.1664104153309322  0.5000000000000000 -0.0000000000000000
  0.5002562513357319  0.5000000000000000  0.0000000000000000
  0.6664104153309324 -0.0000000000000000 -0.0000000000000000
 
  0.00000000E+00  0.00000000E+00  0.00000000E+00
  0.00000000E+00  0.00000000E+00  0.00000000E+00
  0.00000000E+00  0.00000000E+00  0.00000000E+00
  0.00000000E+00  0.00000000E+00  0.00000000E+00
