MD-kMC export data                      
   1.00000000000000     
     4.2941959496053901    0.0000000000000000    0.0000000000000000
     0.0000000000000000    2.4650158921608400    0.0000000000000000
     0.0000000000000000    0.0000000000000000   19.9180630717697014
   C 
     4
Direct
  0.9998788815491882 -0.0000000000000000  0.0000000000000000
  0.1667877851174761  0.5000000000000000 -0.0000000000000000
  0.4998788815491882  0.5000000000000000  0.0000000000000000
  0.6667877851174761 -0.0000000000000000 -0.0000000000000000
 
  0.00000000E+00  0.00000000E+00  0.00000000E+00
  0.00000000E+00  0.00000000E+00  0.00000000E+00
  0.00000000E+00  0.00000000E+00  0.00000000E+00
  0.00000000E+00  0.00000000E+00  0.00000000E+00
