MD-kMC export data                      
   1.00000000000000     
     4.2939822654916497    0.0000000000000000    0.0000000000000000
     0.0000000000000000    2.4650409624085401    0.0000000000000000
     0.0000000000000000    0.0000000000000000   19.9188516836535001
   C 
     4
Direct
  0.9998801365828667 -0.0000000000000000 -0.0000000000000000
  0.1667865300837976  0.5000000000000000  0.0000000000000000
  0.4998801365828667  0.5000000000000000 -0.0000000000000000
  0.6667865300837976 -0.0000000000000000  0.0000000000000000
 
  0.00000000E+00  0.00000000E+00  0.00000000E+00
  0.00000000E+00  0.00000000E+00  0.00000000E+00
  0.00000000E+00  0.00000000E+00  0.00000000E+00
  0.00000000E+00  0.00000000E+00  0.00000000E+00
