MD-kMC export data                      
   1.00000000000000     
     4.4023201111549701    0.0000000000000000    0.0000000000000000
     0.0000000000000000    2.4553604365788599    0.0000000000000000
     0.0000000000000000    0.0000000000000000   19.5052630798673015
   C 
     4
Direct
  0.9993884930052753 -0.0000000000000000 -0.0000000000000000
  0.1672781736613890  0.5000000000000000  0.0000000000000000
  0.4993884930052753  0.5000000000000000 -0.0000000000000000
  0.6672781736613890 -0.0000000000000000  0.0000000000000000
 
  0.00000000E+00  0.00000000E+00  0.00000000E+00
  0.00000000E+00  0.00000000E+00  0.00000000E+00
  0.00000000E+00  0.00000000E+00  0.00000000E+00
  0.00000000E+00  0.00000000E+00  0.00000000E+00
