MD-kMC export data                      
   1.00000000000000     
     4.2693834880766399    0.0000000000000000    0.0000000000000000
     0.0000000000000000    2.4796363779872199    0.0000000000000000
     0.0000000000000000    0.0000000000000000   19.9156974260570010
   C 
     4
Direct
  0.0001302823204613 -0.0000000000000000 -0.0000000000000000
  0.1665363843462030  0.5000000000000000  0.0000000000000000
  0.5001302823204684  0.5000000000000000 -0.0000000000000000
  0.6665363843462030  0.0000000000000000  0.0000000000000000
 
  0.00000000E+00  0.00000000E+00  0.00000000E+00
  0.00000000E+00  0.00000000E+00  0.00000000E+00
  0.00000000E+00  0.00000000E+00  0.00000000E+00
  0.00000000E+00  0.00000000E+00  0.00000000E+00
