MD-kMC export data                      
   1.00000000000000     
     4.2620938829693902    0.0000000000000000    0.0000000000000000
     0.0000000000000000    2.5041872332148198    0.0000000000000000
     0.0000000000000000    0.0000000000000000   19.7541740436814983
   C 
     4
Direct
  0.0003912353707431 -0.0000000000000000 -0.0000000000000000
  0.1662754312959212  0.5000000000000000  0.0000000000000000
  0.5003912353707431  0.5000000000000000 -0.0000000000000000
  0.6662754312959212 -0.0000000000000000  0.0000000000000000
 
  0.00000000E+00  0.00000000E+00  0.00000000E+00
  0.00000000E+00  0.00000000E+00  0.00000000E+00
  0.00000000E+00  0.00000000E+00  0.00000000E+00
  0.00000000E+00  0.00000000E+00  0.00000000E+00
