MD-kMC export data                      
   1.00000000000000     
     4.4012516905862897    0.0000000000000000    0.0000000000000000
     0.0000000000000000    2.4554606209589300    0.0000000000000000
     0.0000000000000000    0.0000000000000000   19.5092020360540985
   C 
     4
Direct
  0.9993917080421071 -0.0000000000000000 -0.0000000000000000
  0.1672749586245572  0.5000000000000000  0.0000000000000000
  0.4993917080421070  0.5000000000000000 -0.0000000000000000
  0.6672749586245572 -0.0000000000000000  0.0000000000000000
 
  0.00000000E+00  0.00000000E+00  0.00000000E+00
  0.00000000E+00  0.00000000E+00  0.00000000E+00
  0.00000000E+00  0.00000000E+00  0.00000000E+00
  0.00000000E+00  0.00000000E+00  0.00000000E+00
