MD-kMC export data                      
   1.00000000000000     
     4.3157780450925598    0.0000000000000000    0.0000000000000000
     0.0000000000000000    2.4628770354313798    0.0000000000000000
     0.0000000000000000    0.0000000000000000   19.8356690713844017
   C 
     4
Direct
  0.9997575997575771  0.0000000000000000 -0.0000000000000000
  0.1669090669090873  0.5000000000000000  0.0000000000000000
  0.4997575997575769  0.5000000000000000 -0.0000000000000000
  0.6669090669090872  0.0000000000000000  0.0000000000000000
 
  0.00000000E+00  0.00000000E+00  0.00000000E+00
  0.00000000E+00  0.00000000E+00  0.00000000E+00
  0.00000000E+00  0.00000000E+00  0.00000000E+00
  0.00000000E+00  0.00000000E+00  0.00000000E+00
