MD-kMC export data                      
   1.00000000000000     
     4.2946233178328601    0.0000000000000000    0.0000000000000000
     0.0000000000000000    2.4649657516654599    0.0000000000000000
     0.0000000000000000    0.0000000000000000   19.9164860957926990
   C 
     4
Direct
  0.9998763853006748  0.0000000000000000  0.0000000000000000
  0.1667902813659895  0.5000000000000000 -0.0000000000000000
  0.4998763853006748  0.5000000000000000  0.0000000000000000
  0.6667902813659895  0.0000000000000000 -0.0000000000000000
 
  0.00000000E+00  0.00000000E+00  0.00000000E+00
  0.00000000E+00  0.00000000E+00  0.00000000E+00
  0.00000000E+00  0.00000000E+00  0.00000000E+00
  0.00000000E+00  0.00000000E+00  0.00000000E+00
