MD-kMC export data                      
   1.00000000000000     
     4.3815927521227298    0.0000000000000000    0.0000000000000000
     0.0000000000000000    2.4570337071446100    0.0000000000000000
     0.0000000000000000    0.0000000000000000   19.5841876062014997
   C 
     4
Direct
  0.9994547632079875 -0.0000000000000000 -0.0000000000000000
  0.1672119034586770  0.5000000000000000  0.0000000000000000
  0.4994547632079873  0.5000000000000000 -0.0000000000000000
  0.6672119034586768 -0.0000000000000000  0.0000000000000000
 
  0.00000000E+00  0.00000000E+00  0.00000000E+00
  0.00000000E+00  0.00000000E+00  0.00000000E+00
  0.00000000E+00  0.00000000E+00  0.00000000E+00
  0.00000000E+00  0.00000000E+00  0.00000000E+00
