MD-kMC export data                      
   1.00000000000000     
     4.2517912629395997    0.0000000000000000    0.0000000000000000
     0.0000000000000000    2.5415686861492999    0.0000000000000000
     0.0000000000000000    0.0000000000000000   19.5107919788640984
   C 
     4
Direct
  0.0007488003274136  0.0000000000000000 -0.0000000000000000
  0.1659178663392507  0.5000000000000000  0.0000000000000000
  0.5007488003274136  0.5000000000000000 -0.0000000000000000
  0.6659178663392507 -0.0000000000000000  0.0000000000000000
 
  0.00000000E+00  0.00000000E+00  0.00000000E+00
  0.00000000E+00  0.00000000E+00  0.00000000E+00
  0.00000000E+00  0.00000000E+00  0.00000000E+00
  0.00000000E+00  0.00000000E+00  0.00000000E+00
