MD-kMC export data                      
   1.00000000000000     
     4.2584287020478797    0.0000000000000000    0.0000000000000000
     0.0000000000000000    2.5171412020534998    0.0000000000000000
     0.0000000000000000    0.0000000000000000   19.6694277914558988
   C 
     4
Direct
  0.0005229341234415  0.0000000000000000 -0.0000000000000000
  0.1661437325432228  0.5000000000000000  0.0000000000000000
  0.5005229341234414  0.5000000000000000 -0.0000000000000000
  0.6661437325432229 -0.0000000000000000  0.0000000000000000
 
  0.00000000E+00  0.00000000E+00  0.00000000E+00
  0.00000000E+00  0.00000000E+00  0.00000000E+00
  0.00000000E+00  0.00000000E+00  0.00000000E+00
  0.00000000E+00  0.00000000E+00  0.00000000E+00
