MD-kMC export data                      
   1.00000000000000     
     4.2552195119015304    0.0000000000000000    0.0000000000000000
     0.0000000000000000    2.5288614595742098    0.0000000000000000
     0.0000000000000000    0.0000000000000000   19.5930333770315990
   C 
     4
Direct
  0.0006349568448118  0.0000000000000000 -0.0000000000000000
  0.1660317098218525  0.5000000000000000  0.0000000000000000
  0.5006349568448117  0.5000000000000000 -0.0000000000000000
  0.6660317098218526 -0.0000000000000000  0.0000000000000000
 
  0.00000000E+00  0.00000000E+00  0.00000000E+00
  0.00000000E+00  0.00000000E+00  0.00000000E+00
  0.00000000E+00  0.00000000E+00  0.00000000E+00
  0.00000000E+00  0.00000000E+00  0.00000000E+00
