MD-kMC export data                      
   1.00000000000000     
     4.2519005358767803    0.0000000000000000    0.0000000000000000
     0.0000000000000000    2.5411985727539101    0.0000000000000000
     0.0000000000000000    0.0000000000000000   19.5131321360018006
   C 
     4
Direct
  0.0007455226026863 -0.0000000000000000 -0.0000000000000000
  0.1659211440639780  0.5000000000000000  0.0000000000000000
  0.5007455226026863  0.5000000000000000 -0.0000000000000000
  0.6659211440639780 -0.0000000000000000  0.0000000000000000
 
  0.00000000E+00  0.00000000E+00  0.00000000E+00
  0.00000000E+00  0.00000000E+00  0.00000000E+00
  0.00000000E+00  0.00000000E+00  0.00000000E+00
  0.00000000E+00  0.00000000E+00  0.00000000E+00
