MD-kMC export data                      
   1.00000000000000     
     4.2694269101636104    0.0000000000000000    0.0000000000000000
     0.0000000000000000    2.4795130068554201    0.0000000000000000
     0.0000000000000000    0.0000000000000000   19.9164857932528001
   C 
     4
Direct
  0.0001289544461336  0.0000000000000000  0.0000000000000000
  0.1665377122205307  0.5000000000000000 -0.0000000000000000
  0.5001289544461407  0.5000000000000000  0.0000000000000000
  0.6665377122205307 -0.0000000000000000 -0.0000000000000000
 
  0.00000000E+00  0.00000000E+00  0.00000000E+00
  0.00000000E+00  0.00000000E+00  0.00000000E+00
  0.00000000E+00  0.00000000E+00  0.00000000E+00
  0.00000000E+00  0.00000000E+00  0.00000000E+00
