MD-kMC export data                      
   1.00000000000000     
     4.2694269101636100    0.0000000000000000    0.0000000000000000
     0.0000000000000000   2.4795130068554200     0.0000000000000000
     0.0000000000000000    0.0000000000000000  19.9164857932528000
   C 
     4
Direct
  0.0001315788365970 -0.0000000000000000  0.0000000000000000
  0.1665350878300672  0.5000000000000000 -0.0000000000000000
  0.5001315788366042  0.5000000000000000  0.0000000000000000
  0.6665350878300672  0.0000000000000000 -0.0000000000000000
 
  0.00000000E+00  0.00000000E+00  0.00000000E+00
  0.00000000E+00  0.00000000E+00  0.00000000E+00
  0.00000000E+00  0.00000000E+00  0.00000000E+00
  0.00000000E+00  0.00000000E+00  0.00000000E+00
