MD-kMC export data                      
   1.00000000000000     
     4.2656739457471904    0.0000000000000000    0.0000000000000000
     0.0000000000000000    2.4918501200351200    0.0000000000000000
     0.0000000000000000    0.0000000000000000   19.8353154501057993
   C 
     4
Direct
  0.0002602980008365 -0.0000000000000000  0.0000000000000000
  0.1664063686658278  0.5000000000000000 -0.0000000000000000
  0.5002602980008365  0.5000000000000000  0.0000000000000000
  0.6664063686658278  0.0000000000000000 -0.0000000000000000
 
  0.00000000E+00  0.00000000E+00  0.00000000E+00
  0.00000000E+00  0.00000000E+00  0.00000000E+00
  0.00000000E+00  0.00000000E+00  0.00000000E+00
  0.00000000E+00  0.00000000E+00  0.00000000E+00
