MD-kMC export data                      
   1.00000000000000     
     4.2586936524411101    0.0000000000000000    0.0000000000000000
     0.0000000000000000    2.5162776041309201    0.0000000000000000
     0.0000000000000000    0.0000000000000000   19.6749542946816014
   C 
     4
Direct
  0.0005142375871890 -0.0000000000000000 -0.0000000000000000
  0.1661524290794753  0.5000000000000000  0.0000000000000000
  0.5005142375871889  0.5000000000000000 -0.0000000000000000
  0.6661524290794754  0.0000000000000000  0.0000000000000000
 
  0.00000000E+00  0.00000000E+00  0.00000000E+00
  0.00000000E+00  0.00000000E+00  0.00000000E+00
  0.00000000E+00  0.00000000E+00  0.00000000E+00
  0.00000000E+00  0.00000000E+00  0.00000000E+00
