MD-kMC export data                      
   1.00000000000000     
     4.3809516997815301    0.0000000000000000    0.0000000000000000
     0.0000000000000000    2.4570954235532900    0.0000000000000000
     0.0000000000000000    0.0000000000000000   19.5865613249775983
   C 
     4
Direct
  0.9994571367299109  0.0000000000000000  0.0000000000000000
  0.1672095299367534  0.5000000000000000 -0.0000000000000000
  0.4994571367299109  0.5000000000000000  0.0000000000000000
  0.6672095299367534  0.0000000000000000 -0.0000000000000000
 
  0.00000000E+00  0.00000000E+00  0.00000000E+00
  0.00000000E+00  0.00000000E+00  0.00000000E+00
  0.00000000E+00  0.00000000E+00  0.00000000E+00
  0.00000000E+00  0.00000000E+00  0.00000000E+00
