MD-kMC export data                      
   1.00000000000000     
     4.2620549957488700    0.0000000000000000    0.0000000000000000
     0.0000000000000000    2.5043106043466099    0.0000000000000000
     0.0000000000000000    0.0000000000000000   19.7533811129951005
   C 
     4
Direct
  0.0003925484822341  0.0000000000000000  0.0000000000000000
  0.1662741181844302  0.5000000000000000 -0.0000000000000000
  0.5003925484822340  0.5000000000000000  0.0000000000000000
  0.6662741181844303  0.0000000000000000 -0.0000000000000000
 
  0.00000000E+00  0.00000000E+00  0.00000000E+00
  0.00000000E+00  0.00000000E+00  0.00000000E+00
  0.00000000E+00  0.00000000E+00  0.00000000E+00
  0.00000000E+00  0.00000000E+00  0.00000000E+00
