MD-kMC export data                      
   1.00000000000000     
     4.2620549957488700    0.0000000000000000    0.0000000000000000
     0.0000000000000000    2.5043106043466100    0.0000000000000000
     0.0000000000000000    0.0000000000000000   19.7533811129951000
   C 
     4
Direct
  0.0003938233602293  0.0000000000000000  0.0000000000000000
  0.1662728433064350  0.5000000000000000 -0.0000000000000000
  0.5003938233602293  0.5000000000000000  0.0000000000000000
  0.6662728433064350  0.0000000000000000 -0.0000000000000000
 
  0.00000000E+00  0.00000000E+00  0.00000000E+00
  0.00000000E+00  0.00000000E+00  0.00000000E+00
  0.00000000E+00  0.00000000E+00  0.00000000E+00
  0.00000000E+00  0.00000000E+00  0.00000000E+00
