MD-kMC export data                      
   1.00000000000000     
     4.3800969633265900    0.0000000000000000    0.0000000000000000
     0.0000000000000000    2.4571777120982001    0.0000000000000000
     0.0000000000000000    0.0000000000000000   19.5897274026201984
   C 
     4
Direct
  0.9994603156066569  0.0000000000000000 -0.0000000000000000
  0.1672063510600074  0.5000000000000000  0.0000000000000000
  0.4994603156066569  0.5000000000000000 -0.0000000000000000
  0.6672063510600074 -0.0000000000000000  0.0000000000000000
 
  0.00000000E+00  0.00000000E+00  0.00000000E+00
  0.00000000E+00  0.00000000E+00  0.00000000E+00
  0.00000000E+00  0.00000000E+00  0.00000000E+00
  0.00000000E+00  0.00000000E+00  0.00000000E+00
